LAMMPS data file via write_data, version 11 Aug 2017, timestep = 32000000

3384 atoms
3 atom types
2000 bonds
1 bond types
1000 angles
1 angle types

0.0000000000000000e+00 2.9625599999999999e+01 xlo xhi
0.0000000000000000e+00 3.4208799999999997e+01 ylo yhi
0.0000000000000000e+00 8.0000000000000000e+01 zlo zhi

Masses

1 15.9994
2 1.0079
3 12.01

Bond Coeffs # harmonic

1 450 0.9572

Angle Coeffs # harmonic

1 55 104.52

Atoms # full

3001 444 3 0.0000000000000000e+00 0.0000000000000000e+00 0.0000000000000000e+00 5.2999999999999998e+00 0 0 0	
3002 444 3 0.0000000000000000e+00 1.2344200000000001e+00 2.1380499999999998e+00 5.2999999999999998e+00 0 0 0	
3003 444 3 0.0000000000000000e+00 0.0000000000000000e+00 1.4254000000000000e+00 5.2999999999999998e+00 0 0 0	
3004 444 3 0.0000000000000000e+00 1.2344200000000001e+00 3.5634399999999999e+00 5.2999999999999998e+00 0 0 0	
3005 444 3 0.0000000000000000e+00 2.4687800000000002e+00 0.0000000000000000e+00 5.2999999999999998e+00 0 0 0	
3006 444 3 0.0000000000000000e+00 3.7031999999999998e+00 2.1380499999999998e+00 5.2999999999999998e+00 0 0 0	
3007 444 3 0.0000000000000000e+00 2.4687800000000002e+00 1.4254000000000000e+00 5.2999999999999998e+00 0 0 0	
3008 444 3 0.0000000000000000e+00 3.7031999999999998e+00 3.5634399999999999e+00 5.2999999999999998e+00 0 0 0	
3009 444 3 0.0000000000000000e+00 4.9376199999999999e+00 0.0000000000000000e+00 5.2999999999999998e+00 0 0 0	
3010 444 3 0.0000000000000000e+00 6.1719700000000000e+00 2.1380499999999998e+00 5.2999999999999998e+00 0 0 0	
3011 444 3 0.0000000000000000e+00 4.9376199999999999e+00 1.4254000000000000e+00 5.2999999999999998e+00 0 0 0	
3012 444 3 0.0000000000000000e+00 6.1719700000000000e+00 3.5634399999999999e+00 5.2999999999999998e+00 0 0 0	
3013 444 3 0.0000000000000000e+00 0.0000000000000000e+00 4.2760999999999996e+00 5.2999999999999998e+00 0 0 0	
3014 444 3 0.0000000000000000e+00 1.2344200000000001e+00 6.4141500000000002e+00 5.2999999999999998e+00 0 0 0	
3015 444 3 0.0000000000000000e+00 0.0000000000000000e+00 5.7014899999999997e+00 5.2999999999999998e+00 0 0 0	
3016 444 3 0.0000000000000000e+00 1.2344200000000001e+00 7.8395400000000004e+00 5.2999999999999998e+00 0 0 0	
3017 444 3 0.0000000000000000e+00 2.4687800000000002e+00 4.2760999999999996e+00 5.2999999999999998e+00 0 0 0	
3018 444 3 0.0000000000000000e+00 3.7031999999999998e+00 6.4141500000000002e+00 5.2999999999999998e+00 0 0 0	
3019 444 3 0.0000000000000000e+00 2.4687800000000002e+00 5.7014899999999997e+00 5.2999999999999998e+00 0 0 0	
3020 444 3 0.0000000000000000e+00 3.7031999999999998e+00 7.8395400000000004e+00 5.2999999999999998e+00 0 0 0	
3021 444 3 0.0000000000000000e+00 4.9376199999999999e+00 4.2760999999999996e+00 5.2999999999999998e+00 0 0 0	
3022 444 3 0.0000000000000000e+00 6.1719700000000000e+00 6.4141500000000002e+00 5.2999999999999998e+00 0 0 0	
3023 444 3 0.0000000000000000e+00 4.9376199999999999e+00 5.7014899999999997e+00 5.2999999999999998e+00 0 0 0	
3024 444 3 0.0000000000000000e+00 6.1719700000000000e+00 7.8395400000000004e+00 5.2999999999999998e+00 0 0 0	
3025 444 3 0.0000000000000000e+00 0.0000000000000000e+00 8.5521999999999991e+00 5.2999999999999998e+00 0 0 0	
3026 444 3 0.0000000000000000e+00 1.2344200000000001e+00 1.0690200000000001e+01 5.2999999999999998e+00 0 0 0	
3027 444 3 0.0000000000000000e+00 0.0000000000000000e+00 9.9776000000000007e+00 5.2999999999999998e+00 0 0 0	
3028 444 3 0.0000000000000000e+00 1.2344200000000001e+00 1.2115600000000001e+01 5.2999999999999998e+00 0 0 0	
3029 444 3 0.0000000000000000e+00 2.4687800000000002e+00 8.5521999999999991e+00 5.2999999999999998e+00 0 0 0	
3030 444 3 0.0000000000000000e+00 3.7031999999999998e+00 1.0690200000000001e+01 5.2999999999999998e+00 0 0 0	
3031 444 3 0.0000000000000000e+00 2.4687800000000002e+00 9.9776000000000007e+00 5.2999999999999998e+00 0 0 0	
3032 444 3 0.0000000000000000e+00 3.7031999999999998e+00 1.2115600000000001e+01 5.2999999999999998e+00 0 0 0	
3033 444 3 0.0000000000000000e+00 4.9376199999999999e+00 8.5521999999999991e+00 5.2999999999999998e+00 0 0 0	
3034 444 3 0.0000000000000000e+00 6.1719700000000000e+00 1.0690200000000001e+01 5.2999999999999998e+00 0 0 0	
3035 444 3 0.0000000000000000e+00 4.9376199999999999e+00 9.9776000000000007e+00 5.2999999999999998e+00 0 0 0	
3036 444 3 0.0000000000000000e+00 6.1719700000000000e+00 1.2115600000000001e+01 5.2999999999999998e+00 0 0 0	
3037 444 3 0.0000000000000000e+00 0.0000000000000000e+00 1.2828300000000000e+01 5.2999999999999998e+00 0 0 0	
3038 444 3 0.0000000000000000e+00 1.2344200000000001e+00 1.4966300000000000e+01 5.2999999999999998e+00 0 0 0	
3039 444 3 0.0000000000000000e+00 0.0000000000000000e+00 1.4253700000000000e+01 5.2999999999999998e+00 0 0 0	
3040 444 3 0.0000000000000000e+00 1.2344200000000001e+00 1.6391700000000000e+01 5.2999999999999998e+00 0 0 0	
3041 444 3 0.0000000000000000e+00 2.4687800000000002e+00 1.2828300000000000e+01 5.2999999999999998e+00 0 0 0	
3042 444 3 0.0000000000000000e+00 3.7031999999999998e+00 1.4966300000000000e+01 5.2999999999999998e+00 0 0 0	
3043 444 3 0.0000000000000000e+00 2.4687800000000002e+00 1.4253700000000000e+01 5.2999999999999998e+00 0 0 0	
3044 444 3 0.0000000000000000e+00 3.7031999999999998e+00 1.6391700000000000e+01 5.2999999999999998e+00 0 0 0	
3045 444 3 0.0000000000000000e+00 4.9376199999999999e+00 1.2828300000000000e+01 5.2999999999999998e+00 0 0 0	
3046 444 3 0.0000000000000000e+00 6.1719700000000000e+00 1.4966300000000000e+01 5.2999999999999998e+00 0 0 0	
3047 444 3 0.0000000000000000e+00 4.9376199999999999e+00 1.4253700000000000e+01 5.2999999999999998e+00 0 0 0	
3048 444 3 0.0000000000000000e+00 6.1719700000000000e+00 1.6391700000000000e+01 5.2999999999999998e+00 0 0 0	
3049 444 3 0.0000000000000000e+00 0.0000000000000000e+00 1.7104399999999998e+01 5.2999999999999998e+00 0 0 0	
3050 444 3 0.0000000000000000e+00 1.2344200000000001e+00 1.9242400000000000e+01 5.2999999999999998e+00 0 0 0	
3051 444 3 0.0000000000000000e+00 0.0000000000000000e+00 1.8529800000000002e+01 5.2999999999999998e+00 0 0 0	
3052 444 3 0.0000000000000000e+00 1.2344200000000001e+00 2.0667800000000000e+01 5.2999999999999998e+00 0 0 0	
3053 444 3 0.0000000000000000e+00 2.4687800000000002e+00 1.7104399999999998e+01 5.2999999999999998e+00 0 0 0	
3054 444 3 0.0000000000000000e+00 3.7031999999999998e+00 1.9242400000000000e+01 5.2999999999999998e+00 0 0 0	
3055 444 3 0.0000000000000000e+00 2.4687800000000002e+00 1.8529800000000002e+01 5.2999999999999998e+00 0 0 0	
3056 444 3 0.0000000000000000e+00 3.7031999999999998e+00 2.0667800000000000e+01 5.2999999999999998e+00 0 0 0	
3057 444 3 0.0000000000000000e+00 4.9376199999999999e+00 1.7104399999999998e+01 5.2999999999999998e+00 0 0 0	
3058 444 3 0.0000000000000000e+00 6.1719700000000000e+00 1.9242400000000000e+01 5.2999999999999998e+00 0 0 0	
3059 444 3 0.0000000000000000e+00 4.9376199999999999e+00 1.8529800000000002e+01 5.2999999999999998e+00 0 0 0	
3060 444 3 0.0000000000000000e+00 6.1719700000000000e+00 2.0667800000000000e+01 5.2999999999999998e+00 0 0 0	
3061 444 3 0.0000000000000000e+00 0.0000000000000000e+00 2.1380500000000001e+01 5.2999999999999998e+00 0 0 0	
3062 444 3 0.0000000000000000e+00 1.2344200000000001e+00 2.3518500000000000e+01 5.2999999999999998e+00 0 0 0	
3063 444 3 0.0000000000000000e+00 0.0000000000000000e+00 2.2805900000000001e+01 5.2999999999999998e+00 0 0 0	
3064 444 3 0.0000000000000000e+00 1.2344200000000001e+00 2.4943899999999999e+01 5.2999999999999998e+00 0 0 0	
3065 444 3 0.0000000000000000e+00 2.4687800000000002e+00 2.1380500000000001e+01 5.2999999999999998e+00 0 0 0	
3066 444 3 0.0000000000000000e+00 3.7031999999999998e+00 2.3518500000000000e+01 5.2999999999999998e+00 0 0 0	
3067 444 3 0.0000000000000000e+00 2.4687800000000002e+00 2.2805900000000001e+01 5.2999999999999998e+00 0 0 0	
3068 444 3 0.0000000000000000e+00 3.7031999999999998e+00 2.4943899999999999e+01 5.2999999999999998e+00 0 0 0	
3069 444 3 0.0000000000000000e+00 4.9376199999999999e+00 2.1380500000000001e+01 5.2999999999999998e+00 0 0 0	
3070 444 3 0.0000000000000000e+00 6.1719700000000000e+00 2.3518500000000000e+01 5.2999999999999998e+00 0 0 0	
3071 444 3 0.0000000000000000e+00 4.9376199999999999e+00 2.2805900000000001e+01 5.2999999999999998e+00 0 0 0	
3072 444 3 0.0000000000000000e+00 6.1719700000000000e+00 2.4943899999999999e+01 5.2999999999999998e+00 0 0 0	
3073 444 3 0.0000000000000000e+00 0.0000000000000000e+00 2.5656600000000001e+01 5.2999999999999998e+00 0 0 0	
3074 444 3 0.0000000000000000e+00 1.2344200000000001e+00 2.7794599999999999e+01 5.2999999999999998e+00 0 0 0	
3075 444 3 0.0000000000000000e+00 0.0000000000000000e+00 2.7082000000000001e+01 5.2999999999999998e+00 0 0 0	
3076 444 3 0.0000000000000000e+00 1.2344200000000001e+00 2.9219999999999999e+01 5.2999999999999998e+00 0 0 0	
3077 444 3 0.0000000000000000e+00 2.4687800000000002e+00 2.5656600000000001e+01 5.2999999999999998e+00 0 0 0	
3078 444 3 0.0000000000000000e+00 3.7031999999999998e+00 2.7794599999999999e+01 5.2999999999999998e+00 0 0 0	
3079 444 3 0.0000000000000000e+00 2.4687800000000002e+00 2.7082000000000001e+01 5.2999999999999998e+00 0 0 0	
3080 444 3 0.0000000000000000e+00 3.7031999999999998e+00 2.9219999999999999e+01 5.2999999999999998e+00 0 0 0	
3081 444 3 0.0000000000000000e+00 4.9376199999999999e+00 2.5656600000000001e+01 5.2999999999999998e+00 0 0 0	
3082 444 3 0.0000000000000000e+00 6.1719700000000000e+00 2.7794599999999999e+01 5.2999999999999998e+00 0 0 0	
3083 444 3 0.0000000000000000e+00 4.9376199999999999e+00 2.7082000000000001e+01 5.2999999999999998e+00 0 0 0	
3084 444 3 0.0000000000000000e+00 6.1719700000000000e+00 2.9219999999999999e+01 5.2999999999999998e+00 0 0 0	
3085 444 3 0.0000000000000000e+00 0.0000000000000000e+00 2.9932700000000001e+01 5.2999999999999998e+00 0 0 0	
3086 444 3 0.0000000000000000e+00 1.2344200000000001e+00 3.2070700000000002e+01 5.2999999999999998e+00 0 0 0	
3087 444 3 0.0000000000000000e+00 0.0000000000000000e+00 3.1358100000000000e+01 5.2999999999999998e+00 0 0 0	
3088 444 3 0.0000000000000000e+00 1.2344200000000001e+00 3.3496099999999998e+01 5.2999999999999998e+00 0 0 0	
3089 444 3 0.0000000000000000e+00 2.4687800000000002e+00 2.9932700000000001e+01 5.2999999999999998e+00 0 0 0	
3090 444 3 0.0000000000000000e+00 3.7031999999999998e+00 3.2070700000000002e+01 5.2999999999999998e+00 0 0 0	
3091 444 3 0.0000000000000000e+00 2.4687800000000002e+00 3.1358100000000000e+01 5.2999999999999998e+00 0 0 0	
3092 444 3 0.0000000000000000e+00 3.7031999999999998e+00 3.3496099999999998e+01 5.2999999999999998e+00 0 0 0	
3093 444 3 0.0000000000000000e+00 4.9376199999999999e+00 2.9932700000000001e+01 5.2999999999999998e+00 0 0 0	
3094 444 3 0.0000000000000000e+00 6.1719700000000000e+00 3.2070700000000002e+01 5.2999999999999998e+00 0 0 0	
3095 444 3 0.0000000000000000e+00 4.9376199999999999e+00 3.1358100000000000e+01 5.2999999999999998e+00 0 0 0	
3096 444 3 0.0000000000000000e+00 6.1719700000000000e+00 3.3496099999999998e+01 5.2999999999999998e+00 0 0 0	
3097 444 3 0.0000000000000000e+00 7.4063999999999997e+00 0.0000000000000000e+00 5.2999999999999998e+00 0 0 0	
3098 444 3 0.0000000000000000e+00 8.6408199999999997e+00 2.1380499999999998e+00 5.2999999999999998e+00 0 0 0	
3099 444 3 0.0000000000000000e+00 7.4063999999999997e+00 1.4254000000000000e+00 5.2999999999999998e+00 0 0 0	
3100 444 3 0.0000000000000000e+00 8.6408199999999997e+00 3.5634399999999999e+00 5.2999999999999998e+00 0 0 0	
3101 444 3 0.0000000000000000e+00 9.8751800000000003e+00 0.0000000000000000e+00 5.2999999999999998e+00 0 0 0	
3102 444 3 0.0000000000000000e+00 1.1109600000000000e+01 2.1380499999999998e+00 5.2999999999999998e+00 0 0 0	
3103 444 3 0.0000000000000000e+00 9.8751800000000003e+00 1.4254000000000000e+00 5.2999999999999998e+00 0 0 0	
3104 444 3 0.0000000000000000e+00 1.1109600000000000e+01 3.5634399999999999e+00 5.2999999999999998e+00 0 0 0	
3105 444 3 0.0000000000000000e+00 1.2343999999999999e+01 0.0000000000000000e+00 5.2999999999999998e+00 0 0 0	
3106 444 3 0.0000000000000000e+00 1.3578400000000000e+01 2.1380499999999998e+00 5.2999999999999998e+00 0 0 0	
3107 444 3 0.0000000000000000e+00 1.2343999999999999e+01 1.4254000000000000e+00 5.2999999999999998e+00 0 0 0	
3108 444 3 0.0000000000000000e+00 1.3578400000000000e+01 3.5634399999999999e+00 5.2999999999999998e+00 0 0 0	
3109 444 3 0.0000000000000000e+00 7.4063999999999997e+00 4.2760999999999996e+00 5.2999999999999998e+00 0 0 0	
3110 444 3 0.0000000000000000e+00 8.6408199999999997e+00 6.4141500000000002e+00 5.2999999999999998e+00 0 0 0	
3111 444 3 0.0000000000000000e+00 7.4063999999999997e+00 5.7014899999999997e+00 5.2999999999999998e+00 0 0 0	
3112 444 3 0.0000000000000000e+00 8.6408199999999997e+00 7.8395400000000004e+00 5.2999999999999998e+00 0 0 0	
3113 444 3 0.0000000000000000e+00 9.8751800000000003e+00 4.2760999999999996e+00 5.2999999999999998e+00 0 0 0	
3114 444 3 0.0000000000000000e+00 1.1109600000000000e+01 6.4141500000000002e+00 5.2999999999999998e+00 0 0 0	
3115 444 3 0.0000000000000000e+00 9.8751800000000003e+00 5.7014899999999997e+00 5.2999999999999998e+00 0 0 0	
3116 444 3 0.0000000000000000e+00 1.1109600000000000e+01 7.8395400000000004e+00 5.2999999999999998e+00 0 0 0	
3117 444 3 0.0000000000000000e+00 1.2343999999999999e+01 4.2760999999999996e+00 5.2999999999999998e+00 0 0 0	
3118 444 3 0.0000000000000000e+00 1.3578400000000000e+01 6.4141500000000002e+00 5.2999999999999998e+00 0 0 0	
3119 444 3 0.0000000000000000e+00 1.2343999999999999e+01 5.7014899999999997e+00 5.2999999999999998e+00 0 0 0	
3120 444 3 0.0000000000000000e+00 1.3578400000000000e+01 7.8395400000000004e+00 5.2999999999999998e+00 0 0 0	
3121 444 3 0.0000000000000000e+00 7.4063999999999997e+00 8.5521999999999991e+00 5.2999999999999998e+00 0 0 0	
3122 444 3 0.0000000000000000e+00 8.6408199999999997e+00 1.0690200000000001e+01 5.2999999999999998e+00 0 0 0	
3123 444 3 0.0000000000000000e+00 7.4063999999999997e+00 9.9776000000000007e+00 5.2999999999999998e+00 0 0 0	
3124 444 3 0.0000000000000000e+00 8.6408199999999997e+00 1.2115600000000001e+01 5.2999999999999998e+00 0 0 0	
3125 444 3 0.0000000000000000e+00 9.8751800000000003e+00 8.5521999999999991e+00 5.2999999999999998e+00 0 0 0	
3126 444 3 0.0000000000000000e+00 1.1109600000000000e+01 1.0690200000000001e+01 5.2999999999999998e+00 0 0 0	
3127 444 3 0.0000000000000000e+00 9.8751800000000003e+00 9.9776000000000007e+00 5.2999999999999998e+00 0 0 0	
3128 444 3 0.0000000000000000e+00 1.1109600000000000e+01 1.2115600000000001e+01 5.2999999999999998e+00 0 0 0	
3129 444 3 0.0000000000000000e+00 1.2343999999999999e+01 8.5521999999999991e+00 5.2999999999999998e+00 0 0 0	
3130 444 3 0.0000000000000000e+00 1.3578400000000000e+01 1.0690200000000001e+01 5.2999999999999998e+00 0 0 0	
3131 444 3 0.0000000000000000e+00 1.2343999999999999e+01 9.9776000000000007e+00 5.2999999999999998e+00 0 0 0	
3132 444 3 0.0000000000000000e+00 1.3578400000000000e+01 1.2115600000000001e+01 5.2999999999999998e+00 0 0 0	
3133 444 3 0.0000000000000000e+00 7.4063999999999997e+00 1.2828300000000000e+01 5.2999999999999998e+00 0 0 0	
3134 444 3 0.0000000000000000e+00 8.6408199999999997e+00 1.4966300000000000e+01 5.2999999999999998e+00 0 0 0	
3135 444 3 0.0000000000000000e+00 7.4063999999999997e+00 1.4253700000000000e+01 5.2999999999999998e+00 0 0 0	
3136 444 3 0.0000000000000000e+00 8.6408199999999997e+00 1.6391700000000000e+01 5.2999999999999998e+00 0 0 0	
3137 444 3 0.0000000000000000e+00 9.8751800000000003e+00 1.2828300000000000e+01 5.2999999999999998e+00 0 0 0	
3138 444 3 0.0000000000000000e+00 1.1109600000000000e+01 1.4966300000000000e+01 5.2999999999999998e+00 0 0 0	
3139 444 3 0.0000000000000000e+00 9.8751800000000003e+00 1.4253700000000000e+01 5.2999999999999998e+00 0 0 0	
3140 444 3 0.0000000000000000e+00 1.1109600000000000e+01 1.6391700000000000e+01 5.2999999999999998e+00 0 0 0	
3141 444 3 0.0000000000000000e+00 1.2343999999999999e+01 1.2828300000000000e+01 5.2999999999999998e+00 0 0 0	
3142 444 3 0.0000000000000000e+00 1.3578400000000000e+01 1.4966300000000000e+01 5.2999999999999998e+00 0 0 0	
3143 444 3 0.0000000000000000e+00 1.2343999999999999e+01 1.4253700000000000e+01 5.2999999999999998e+00 0 0 0	
3144 444 3 0.0000000000000000e+00 1.3578400000000000e+01 1.6391700000000000e+01 5.2999999999999998e+00 0 0 0	
3145 444 3 0.0000000000000000e+00 7.4063999999999997e+00 1.7104399999999998e+01 5.2999999999999998e+00 0 0 0	
3146 444 3 0.0000000000000000e+00 8.6408199999999997e+00 1.9242400000000000e+01 5.2999999999999998e+00 0 0 0	
3147 444 3 0.0000000000000000e+00 7.4063999999999997e+00 1.8529800000000002e+01 5.2999999999999998e+00 0 0 0	
3148 444 3 0.0000000000000000e+00 8.6408199999999997e+00 2.0667800000000000e+01 5.2999999999999998e+00 0 0 0	
3149 444 3 0.0000000000000000e+00 9.8751800000000003e+00 1.7104399999999998e+01 5.2999999999999998e+00 0 0 0	
3150 444 3 0.0000000000000000e+00 1.1109600000000000e+01 1.9242400000000000e+01 5.2999999999999998e+00 0 0 0	
3151 444 3 0.0000000000000000e+00 9.8751800000000003e+00 1.8529800000000002e+01 5.2999999999999998e+00 0 0 0	
3152 444 3 0.0000000000000000e+00 1.1109600000000000e+01 2.0667800000000000e+01 5.2999999999999998e+00 0 0 0	
3153 444 3 0.0000000000000000e+00 1.2343999999999999e+01 1.7104399999999998e+01 5.2999999999999998e+00 0 0 0	
3154 444 3 0.0000000000000000e+00 1.3578400000000000e+01 1.9242400000000000e+01 5.2999999999999998e+00 0 0 0	
3155 444 3 0.0000000000000000e+00 1.2343999999999999e+01 1.8529800000000002e+01 5.2999999999999998e+00 0 0 0	
3156 444 3 0.0000000000000000e+00 1.3578400000000000e+01 2.0667800000000000e+01 5.2999999999999998e+00 0 0 0	
3157 444 3 0.0000000000000000e+00 7.4063999999999997e+00 2.1380500000000001e+01 5.2999999999999998e+00 0 0 0	
3158 444 3 0.0000000000000000e+00 8.6408199999999997e+00 2.3518500000000000e+01 5.2999999999999998e+00 0 0 0	
3159 444 3 0.0000000000000000e+00 7.4063999999999997e+00 2.2805900000000001e+01 5.2999999999999998e+00 0 0 0	
3160 444 3 0.0000000000000000e+00 8.6408199999999997e+00 2.4943899999999999e+01 5.2999999999999998e+00 0 0 0	
3161 444 3 0.0000000000000000e+00 9.8751800000000003e+00 2.1380500000000001e+01 5.2999999999999998e+00 0 0 0	
3162 444 3 0.0000000000000000e+00 1.1109600000000000e+01 2.3518500000000000e+01 5.2999999999999998e+00 0 0 0	
3163 444 3 0.0000000000000000e+00 9.8751800000000003e+00 2.2805900000000001e+01 5.2999999999999998e+00 0 0 0	
3164 444 3 0.0000000000000000e+00 1.1109600000000000e+01 2.4943899999999999e+01 5.2999999999999998e+00 0 0 0	
3165 444 3 0.0000000000000000e+00 1.2343999999999999e+01 2.1380500000000001e+01 5.2999999999999998e+00 0 0 0	
3166 444 3 0.0000000000000000e+00 1.3578400000000000e+01 2.3518500000000000e+01 5.2999999999999998e+00 0 0 0	
3167 444 3 0.0000000000000000e+00 1.2343999999999999e+01 2.2805900000000001e+01 5.2999999999999998e+00 0 0 0	
3168 444 3 0.0000000000000000e+00 1.3578400000000000e+01 2.4943899999999999e+01 5.2999999999999998e+00 0 0 0	
3169 444 3 0.0000000000000000e+00 7.4063999999999997e+00 2.5656600000000001e+01 5.2999999999999998e+00 0 0 0	
3170 444 3 0.0000000000000000e+00 8.6408199999999997e+00 2.7794599999999999e+01 5.2999999999999998e+00 0 0 0	
3171 444 3 0.0000000000000000e+00 7.4063999999999997e+00 2.7082000000000001e+01 5.2999999999999998e+00 0 0 0	
3172 444 3 0.0000000000000000e+00 8.6408199999999997e+00 2.9219999999999999e+01 5.2999999999999998e+00 0 0 0	
3173 444 3 0.0000000000000000e+00 9.8751800000000003e+00 2.5656600000000001e+01 5.2999999999999998e+00 0 0 0	
3174 444 3 0.0000000000000000e+00 1.1109600000000000e+01 2.7794599999999999e+01 5.2999999999999998e+00 0 0 0	
3175 444 3 0.0000000000000000e+00 9.8751800000000003e+00 2.7082000000000001e+01 5.2999999999999998e+00 0 0 0	
3176 444 3 0.0000000000000000e+00 1.1109600000000000e+01 2.9219999999999999e+01 5.2999999999999998e+00 0 0 0	
3177 444 3 0.0000000000000000e+00 1.2343999999999999e+01 2.5656600000000001e+01 5.2999999999999998e+00 0 0 0	
3178 444 3 0.0000000000000000e+00 1.3578400000000000e+01 2.7794599999999999e+01 5.2999999999999998e+00 0 0 0	
3179 444 3 0.0000000000000000e+00 1.2343999999999999e+01 2.7082000000000001e+01 5.2999999999999998e+00 0 0 0	
3180 444 3 0.0000000000000000e+00 1.3578400000000000e+01 2.9219999999999999e+01 5.2999999999999998e+00 0 0 0	
3181 444 3 0.0000000000000000e+00 7.4063999999999997e+00 2.9932700000000001e+01 5.2999999999999998e+00 0 0 0	
3182 444 3 0.0000000000000000e+00 8.6408199999999997e+00 3.2070700000000002e+01 5.2999999999999998e+00 0 0 0	
3183 444 3 0.0000000000000000e+00 7.4063999999999997e+00 3.1358100000000000e+01 5.2999999999999998e+00 0 0 0	
3184 444 3 0.0000000000000000e+00 8.6408199999999997e+00 3.3496099999999998e+01 5.2999999999999998e+00 0 0 0	
3185 444 3 0.0000000000000000e+00 9.8751800000000003e+00 2.9932700000000001e+01 5.2999999999999998e+00 0 0 0	
3186 444 3 0.0000000000000000e+00 1.1109600000000000e+01 3.2070700000000002e+01 5.2999999999999998e+00 0 0 0	
3187 444 3 0.0000000000000000e+00 9.8751800000000003e+00 3.1358100000000000e+01 5.2999999999999998e+00 0 0 0	
3188 444 3 0.0000000000000000e+00 1.1109600000000000e+01 3.3496099999999998e+01 5.2999999999999998e+00 0 0 0	
3189 444 3 0.0000000000000000e+00 1.2343999999999999e+01 2.9932700000000001e+01 5.2999999999999998e+00 0 0 0	
3190 444 3 0.0000000000000000e+00 1.3578400000000000e+01 3.2070700000000002e+01 5.2999999999999998e+00 0 0 0	
3191 444 3 0.0000000000000000e+00 1.2343999999999999e+01 3.1358100000000000e+01 5.2999999999999998e+00 0 0 0	
3192 444 3 0.0000000000000000e+00 1.3578400000000000e+01 3.3496099999999998e+01 5.2999999999999998e+00 0 0 0	
3193 444 3 0.0000000000000000e+00 1.4812799999999999e+01 0.0000000000000000e+00 5.2999999999999998e+00 0 0 0	
3194 444 3 0.0000000000000000e+00 1.6047200000000000e+01 2.1380499999999998e+00 5.2999999999999998e+00 0 0 0	
3195 444 3 0.0000000000000000e+00 1.4812799999999999e+01 1.4254000000000000e+00 5.2999999999999998e+00 0 0 0	
3196 444 3 0.0000000000000000e+00 1.6047200000000000e+01 3.5634399999999999e+00 5.2999999999999998e+00 0 0 0	
3197 444 3 0.0000000000000000e+00 1.7281600000000001e+01 0.0000000000000000e+00 5.2999999999999998e+00 0 0 0	
3198 444 3 0.0000000000000000e+00 1.8515999999999998e+01 2.1380499999999998e+00 5.2999999999999998e+00 0 0 0	
3199 444 3 0.0000000000000000e+00 1.7281600000000001e+01 1.4254000000000000e+00 5.2999999999999998e+00 0 0 0	
3200 444 3 0.0000000000000000e+00 1.8515999999999998e+01 3.5634399999999999e+00 5.2999999999999998e+00 0 0 0	
3201 444 3 0.0000000000000000e+00 1.9750399999999999e+01 0.0000000000000000e+00 5.2999999999999998e+00 0 0 0	
3202 444 3 0.0000000000000000e+00 2.0984800000000000e+01 2.1380499999999998e+00 5.2999999999999998e+00 0 0 0	
3203 444 3 0.0000000000000000e+00 1.9750399999999999e+01 1.4254000000000000e+00 5.2999999999999998e+00 0 0 0	
3204 444 3 0.0000000000000000e+00 2.0984800000000000e+01 3.5634399999999999e+00 5.2999999999999998e+00 0 0 0	
3205 444 3 0.0000000000000000e+00 1.4812799999999999e+01 4.2760999999999996e+00 5.2999999999999998e+00 0 0 0	
3206 444 3 0.0000000000000000e+00 1.6047200000000000e+01 6.4141500000000002e+00 5.2999999999999998e+00 0 0 0	
3207 444 3 0.0000000000000000e+00 1.4812799999999999e+01 5.7014899999999997e+00 5.2999999999999998e+00 0 0 0	
3208 444 3 0.0000000000000000e+00 1.6047200000000000e+01 7.8395400000000004e+00 5.2999999999999998e+00 0 0 0	
3209 444 3 0.0000000000000000e+00 1.7281600000000001e+01 4.2760999999999996e+00 5.2999999999999998e+00 0 0 0	
3210 444 3 0.0000000000000000e+00 1.8515999999999998e+01 6.4141500000000002e+00 5.2999999999999998e+00 0 0 0	
3211 444 3 0.0000000000000000e+00 1.7281600000000001e+01 5.7014899999999997e+00 5.2999999999999998e+00 0 0 0	
3212 444 3 0.0000000000000000e+00 1.8515999999999998e+01 7.8395400000000004e+00 5.2999999999999998e+00 0 0 0	
3213 444 3 0.0000000000000000e+00 1.9750399999999999e+01 4.2760999999999996e+00 5.2999999999999998e+00 0 0 0	
3214 444 3 0.0000000000000000e+00 2.0984800000000000e+01 6.4141500000000002e+00 5.2999999999999998e+00 0 0 0	
3215 444 3 0.0000000000000000e+00 1.9750399999999999e+01 5.7014899999999997e+00 5.2999999999999998e+00 0 0 0	
3216 444 3 0.0000000000000000e+00 2.0984800000000000e+01 7.8395400000000004e+00 5.2999999999999998e+00 0 0 0	
3217 444 3 0.0000000000000000e+00 1.4812799999999999e+01 8.5521999999999991e+00 5.2999999999999998e+00 0 0 0	
3218 444 3 0.0000000000000000e+00 1.6047200000000000e+01 1.0690200000000001e+01 5.2999999999999998e+00 0 0 0	
3219 444 3 0.0000000000000000e+00 1.4812799999999999e+01 9.9776000000000007e+00 5.2999999999999998e+00 0 0 0	
3220 444 3 0.0000000000000000e+00 1.6047200000000000e+01 1.2115600000000001e+01 5.2999999999999998e+00 0 0 0	
3221 444 3 0.0000000000000000e+00 1.7281600000000001e+01 8.5521999999999991e+00 5.2999999999999998e+00 0 0 0	
3222 444 3 0.0000000000000000e+00 1.8515999999999998e+01 1.0690200000000001e+01 5.2999999999999998e+00 0 0 0	
3223 444 3 0.0000000000000000e+00 1.7281600000000001e+01 9.9776000000000007e+00 5.2999999999999998e+00 0 0 0	
3224 444 3 0.0000000000000000e+00 1.8515999999999998e+01 1.2115600000000001e+01 5.2999999999999998e+00 0 0 0	
3225 444 3 0.0000000000000000e+00 1.9750399999999999e+01 8.5521999999999991e+00 5.2999999999999998e+00 0 0 0	
3226 444 3 0.0000000000000000e+00 2.0984800000000000e+01 1.0690200000000001e+01 5.2999999999999998e+00 0 0 0	
3227 444 3 0.0000000000000000e+00 1.9750399999999999e+01 9.9776000000000007e+00 5.2999999999999998e+00 0 0 0	
3228 444 3 0.0000000000000000e+00 2.0984800000000000e+01 1.2115600000000001e+01 5.2999999999999998e+00 0 0 0	
3229 444 3 0.0000000000000000e+00 1.4812799999999999e+01 1.2828300000000000e+01 5.2999999999999998e+00 0 0 0	
3230 444 3 0.0000000000000000e+00 1.6047200000000000e+01 1.4966300000000000e+01 5.2999999999999998e+00 0 0 0	
3231 444 3 0.0000000000000000e+00 1.4812799999999999e+01 1.4253700000000000e+01 5.2999999999999998e+00 0 0 0	
3232 444 3 0.0000000000000000e+00 1.6047200000000000e+01 1.6391700000000000e+01 5.2999999999999998e+00 0 0 0	
3233 444 3 0.0000000000000000e+00 1.7281600000000001e+01 1.2828300000000000e+01 5.2999999999999998e+00 0 0 0	
3234 444 3 0.0000000000000000e+00 1.8515999999999998e+01 1.4966300000000000e+01 5.2999999999999998e+00 0 0 0	
3235 444 3 0.0000000000000000e+00 1.7281600000000001e+01 1.4253700000000000e+01 5.2999999999999998e+00 0 0 0	
3236 444 3 0.0000000000000000e+00 1.8515999999999998e+01 1.6391700000000000e+01 5.2999999999999998e+00 0 0 0	
3237 444 3 0.0000000000000000e+00 1.9750399999999999e+01 1.2828300000000000e+01 5.2999999999999998e+00 0 0 0	
3238 444 3 0.0000000000000000e+00 2.0984800000000000e+01 1.4966300000000000e+01 5.2999999999999998e+00 0 0 0	
3239 444 3 0.0000000000000000e+00 1.9750399999999999e+01 1.4253700000000000e+01 5.2999999999999998e+00 0 0 0	
3240 444 3 0.0000000000000000e+00 2.0984800000000000e+01 1.6391700000000000e+01 5.2999999999999998e+00 0 0 0	
3241 444 3 0.0000000000000000e+00 1.4812799999999999e+01 1.7104399999999998e+01 5.2999999999999998e+00 0 0 0	
3242 444 3 0.0000000000000000e+00 1.6047200000000000e+01 1.9242400000000000e+01 5.2999999999999998e+00 0 0 0	
3243 444 3 0.0000000000000000e+00 1.4812799999999999e+01 1.8529800000000002e+01 5.2999999999999998e+00 0 0 0	
3244 444 3 0.0000000000000000e+00 1.6047200000000000e+01 2.0667800000000000e+01 5.2999999999999998e+00 0 0 0	
3245 444 3 0.0000000000000000e+00 1.7281600000000001e+01 1.7104399999999998e+01 5.2999999999999998e+00 0 0 0	
3246 444 3 0.0000000000000000e+00 1.8515999999999998e+01 1.9242400000000000e+01 5.2999999999999998e+00 0 0 0	
3247 444 3 0.0000000000000000e+00 1.7281600000000001e+01 1.8529800000000002e+01 5.2999999999999998e+00 0 0 0	
3248 444 3 0.0000000000000000e+00 1.8515999999999998e+01 2.0667800000000000e+01 5.2999999999999998e+00 0 0 0	
3249 444 3 0.0000000000000000e+00 1.9750399999999999e+01 1.7104399999999998e+01 5.2999999999999998e+00 0 0 0	
3250 444 3 0.0000000000000000e+00 2.0984800000000000e+01 1.9242400000000000e+01 5.2999999999999998e+00 0 0 0	
3251 444 3 0.0000000000000000e+00 1.9750399999999999e+01 1.8529800000000002e+01 5.2999999999999998e+00 0 0 0	
3252 444 3 0.0000000000000000e+00 2.0984800000000000e+01 2.0667800000000000e+01 5.2999999999999998e+00 0 0 0	
3253 444 3 0.0000000000000000e+00 1.4812799999999999e+01 2.1380500000000001e+01 5.2999999999999998e+00 0 0 0	
3254 444 3 0.0000000000000000e+00 1.6047200000000000e+01 2.3518500000000000e+01 5.2999999999999998e+00 0 0 0	
3255 444 3 0.0000000000000000e+00 1.4812799999999999e+01 2.2805900000000001e+01 5.2999999999999998e+00 0 0 0	
3256 444 3 0.0000000000000000e+00 1.6047200000000000e+01 2.4943899999999999e+01 5.2999999999999998e+00 0 0 0	
3257 444 3 0.0000000000000000e+00 1.7281600000000001e+01 2.1380500000000001e+01 5.2999999999999998e+00 0 0 0	
3258 444 3 0.0000000000000000e+00 1.8515999999999998e+01 2.3518500000000000e+01 5.2999999999999998e+00 0 0 0	
3259 444 3 0.0000000000000000e+00 1.7281600000000001e+01 2.2805900000000001e+01 5.2999999999999998e+00 0 0 0	
3260 444 3 0.0000000000000000e+00 1.8515999999999998e+01 2.4943899999999999e+01 5.2999999999999998e+00 0 0 0	
3261 444 3 0.0000000000000000e+00 1.9750399999999999e+01 2.1380500000000001e+01 5.2999999999999998e+00 0 0 0	
3262 444 3 0.0000000000000000e+00 2.0984800000000000e+01 2.3518500000000000e+01 5.2999999999999998e+00 0 0 0	
3263 444 3 0.0000000000000000e+00 1.9750399999999999e+01 2.2805900000000001e+01 5.2999999999999998e+00 0 0 0	
3264 444 3 0.0000000000000000e+00 2.0984800000000000e+01 2.4943899999999999e+01 5.2999999999999998e+00 0 0 0	
3265 444 3 0.0000000000000000e+00 1.4812799999999999e+01 2.5656600000000001e+01 5.2999999999999998e+00 0 0 0	
3266 444 3 0.0000000000000000e+00 1.6047200000000000e+01 2.7794599999999999e+01 5.2999999999999998e+00 0 0 0	
3267 444 3 0.0000000000000000e+00 1.4812799999999999e+01 2.7082000000000001e+01 5.2999999999999998e+00 0 0 0	
3268 444 3 0.0000000000000000e+00 1.6047200000000000e+01 2.9219999999999999e+01 5.2999999999999998e+00 0 0 0	
3269 444 3 0.0000000000000000e+00 1.7281600000000001e+01 2.5656600000000001e+01 5.2999999999999998e+00 0 0 0	
3270 444 3 0.0000000000000000e+00 1.8515999999999998e+01 2.7794599999999999e+01 5.2999999999999998e+00 0 0 0	
3271 444 3 0.0000000000000000e+00 1.7281600000000001e+01 2.7082000000000001e+01 5.2999999999999998e+00 0 0 0	
3272 444 3 0.0000000000000000e+00 1.8515999999999998e+01 2.9219999999999999e+01 5.2999999999999998e+00 0 0 0	
3273 444 3 0.0000000000000000e+00 1.9750399999999999e+01 2.5656600000000001e+01 5.2999999999999998e+00 0 0 0	
3274 444 3 0.0000000000000000e+00 2.0984800000000000e+01 2.7794599999999999e+01 5.2999999999999998e+00 0 0 0	
3275 444 3 0.0000000000000000e+00 1.9750399999999999e+01 2.7082000000000001e+01 5.2999999999999998e+00 0 0 0	
3276 444 3 0.0000000000000000e+00 2.0984800000000000e+01 2.9219999999999999e+01 5.2999999999999998e+00 0 0 0	
3277 444 3 0.0000000000000000e+00 1.4812799999999999e+01 2.9932700000000001e+01 5.2999999999999998e+00 0 0 0	
3278 444 3 0.0000000000000000e+00 1.6047200000000000e+01 3.2070700000000002e+01 5.2999999999999998e+00 0 0 0	
3279 444 3 0.0000000000000000e+00 1.4812799999999999e+01 3.1358100000000000e+01 5.2999999999999998e+00 0 0 0	
3280 444 3 0.0000000000000000e+00 1.6047200000000000e+01 3.3496099999999998e+01 5.2999999999999998e+00 0 0 0	
3281 444 3 0.0000000000000000e+00 1.7281600000000001e+01 2.9932700000000001e+01 5.2999999999999998e+00 0 0 0	
3282 444 3 0.0000000000000000e+00 1.8515999999999998e+01 3.2070700000000002e+01 5.2999999999999998e+00 0 0 0	
3283 444 3 0.0000000000000000e+00 1.7281600000000001e+01 3.1358100000000000e+01 5.2999999999999998e+00 0 0 0	
3284 444 3 0.0000000000000000e+00 1.8515999999999998e+01 3.3496099999999998e+01 5.2999999999999998e+00 0 0 0	
3285 444 3 0.0000000000000000e+00 1.9750399999999999e+01 2.9932700000000001e+01 5.2999999999999998e+00 0 0 0	
3286 444 3 0.0000000000000000e+00 2.0984800000000000e+01 3.2070700000000002e+01 5.2999999999999998e+00 0 0 0	
3287 444 3 0.0000000000000000e+00 1.9750399999999999e+01 3.1358100000000000e+01 5.2999999999999998e+00 0 0 0	
3288 444 3 0.0000000000000000e+00 2.0984800000000000e+01 3.3496099999999998e+01 5.2999999999999998e+00 0 0 0	
3289 444 3 0.0000000000000000e+00 2.2219200000000001e+01 0.0000000000000000e+00 5.2999999999999998e+00 0 0 0	
3290 444 3 0.0000000000000000e+00 2.3453600000000002e+01 2.1380499999999998e+00 5.2999999999999998e+00 0 0 0	
3291 444 3 0.0000000000000000e+00 2.2219200000000001e+01 1.4254000000000000e+00 5.2999999999999998e+00 0 0 0	
3292 444 3 0.0000000000000000e+00 2.3453600000000002e+01 3.5634399999999999e+00 5.2999999999999998e+00 0 0 0	
3293 444 3 0.0000000000000000e+00 2.4687999999999999e+01 0.0000000000000000e+00 5.2999999999999998e+00 0 0 0	
3294 444 3 0.0000000000000000e+00 2.5922400000000000e+01 2.1380499999999998e+00 5.2999999999999998e+00 0 0 0	
3295 444 3 0.0000000000000000e+00 2.4687999999999999e+01 1.4254000000000000e+00 5.2999999999999998e+00 0 0 0	
3296 444 3 0.0000000000000000e+00 2.5922400000000000e+01 3.5634399999999999e+00 5.2999999999999998e+00 0 0 0	
3297 444 3 0.0000000000000000e+00 2.7156800000000000e+01 0.0000000000000000e+00 5.2999999999999998e+00 0 0 0	
3298 444 3 0.0000000000000000e+00 2.8391200000000001e+01 2.1380499999999998e+00 5.2999999999999998e+00 0 0 0	
3299 444 3 0.0000000000000000e+00 2.7156800000000000e+01 1.4254000000000000e+00 5.2999999999999998e+00 0 0 0	
3300 444 3 0.0000000000000000e+00 2.8391200000000001e+01 3.5634399999999999e+00 5.2999999999999998e+00 0 0 0	
3301 444 3 0.0000000000000000e+00 2.2219200000000001e+01 4.2760999999999996e+00 5.2999999999999998e+00 0 0 0	
3302 444 3 0.0000000000000000e+00 2.3453600000000002e+01 6.4141500000000002e+00 5.2999999999999998e+00 0 0 0	
3303 444 3 0.0000000000000000e+00 2.2219200000000001e+01 5.7014899999999997e+00 5.2999999999999998e+00 0 0 0	
3304 444 3 0.0000000000000000e+00 2.3453600000000002e+01 7.8395400000000004e+00 5.2999999999999998e+00 0 0 0	
3305 444 3 0.0000000000000000e+00 2.4687999999999999e+01 4.2760999999999996e+00 5.2999999999999998e+00 0 0 0	
3306 444 3 0.0000000000000000e+00 2.5922400000000000e+01 6.4141500000000002e+00 5.2999999999999998e+00 0 0 0	
3307 444 3 0.0000000000000000e+00 2.4687999999999999e+01 5.7014899999999997e+00 5.2999999999999998e+00 0 0 0	
3308 444 3 0.0000000000000000e+00 2.5922400000000000e+01 7.8395400000000004e+00 5.2999999999999998e+00 0 0 0	
3309 444 3 0.0000000000000000e+00 2.7156800000000000e+01 4.2760999999999996e+00 5.2999999999999998e+00 0 0 0	
3310 444 3 0.0000000000000000e+00 2.8391200000000001e+01 6.4141500000000002e+00 5.2999999999999998e+00 0 0 0	
3311 444 3 0.0000000000000000e+00 2.7156800000000000e+01 5.7014899999999997e+00 5.2999999999999998e+00 0 0 0	
3312 444 3 0.0000000000000000e+00 2.8391200000000001e+01 7.8395400000000004e+00 5.2999999999999998e+00 0 0 0	
3313 444 3 0.0000000000000000e+00 2.2219200000000001e+01 8.5521999999999991e+00 5.2999999999999998e+00 0 0 0	
3314 444 3 0.0000000000000000e+00 2.3453600000000002e+01 1.0690200000000001e+01 5.2999999999999998e+00 0 0 0	
3315 444 3 0.0000000000000000e+00 2.2219200000000001e+01 9.9776000000000007e+00 5.2999999999999998e+00 0 0 0	
3316 444 3 0.0000000000000000e+00 2.3453600000000002e+01 1.2115600000000001e+01 5.2999999999999998e+00 0 0 0	
3317 444 3 0.0000000000000000e+00 2.4687999999999999e+01 8.5521999999999991e+00 5.2999999999999998e+00 0 0 0	
3318 444 3 0.0000000000000000e+00 2.5922400000000000e+01 1.0690200000000001e+01 5.2999999999999998e+00 0 0 0	
3319 444 3 0.0000000000000000e+00 2.4687999999999999e+01 9.9776000000000007e+00 5.2999999999999998e+00 0 0 0	
3320 444 3 0.0000000000000000e+00 2.5922400000000000e+01 1.2115600000000001e+01 5.2999999999999998e+00 0 0 0	
3321 444 3 0.0000000000000000e+00 2.7156800000000000e+01 8.5521999999999991e+00 5.2999999999999998e+00 0 0 0	
3322 444 3 0.0000000000000000e+00 2.8391200000000001e+01 1.0690200000000001e+01 5.2999999999999998e+00 0 0 0	
3323 444 3 0.0000000000000000e+00 2.7156800000000000e+01 9.9776000000000007e+00 5.2999999999999998e+00 0 0 0	
3324 444 3 0.0000000000000000e+00 2.8391200000000001e+01 1.2115600000000001e+01 5.2999999999999998e+00 0 0 0	
3325 444 3 0.0000000000000000e+00 2.2219200000000001e+01 1.2828300000000000e+01 5.2999999999999998e+00 0 0 0	
3326 444 3 0.0000000000000000e+00 2.3453600000000002e+01 1.4966300000000000e+01 5.2999999999999998e+00 0 0 0	
3327 444 3 0.0000000000000000e+00 2.2219200000000001e+01 1.4253700000000000e+01 5.2999999999999998e+00 0 0 0	
3328 444 3 0.0000000000000000e+00 2.3453600000000002e+01 1.6391700000000000e+01 5.2999999999999998e+00 0 0 0	
3329 444 3 0.0000000000000000e+00 2.4687999999999999e+01 1.2828300000000000e+01 5.2999999999999998e+00 0 0 0	
3330 444 3 0.0000000000000000e+00 2.5922400000000000e+01 1.4966300000000000e+01 5.2999999999999998e+00 0 0 0	
3331 444 3 0.0000000000000000e+00 2.4687999999999999e+01 1.4253700000000000e+01 5.2999999999999998e+00 0 0 0	
3332 444 3 0.0000000000000000e+00 2.5922400000000000e+01 1.6391700000000000e+01 5.2999999999999998e+00 0 0 0	
3333 444 3 0.0000000000000000e+00 2.7156800000000000e+01 1.2828300000000000e+01 5.2999999999999998e+00 0 0 0	
3334 444 3 0.0000000000000000e+00 2.8391200000000001e+01 1.4966300000000000e+01 5.2999999999999998e+00 0 0 0	
3335 444 3 0.0000000000000000e+00 2.7156800000000000e+01 1.4253700000000000e+01 5.2999999999999998e+00 0 0 0	
3336 444 3 0.0000000000000000e+00 2.8391200000000001e+01 1.6391700000000000e+01 5.2999999999999998e+00 0 0 0	
3337 444 3 0.0000000000000000e+00 2.2219200000000001e+01 1.7104399999999998e+01 5.2999999999999998e+00 0 0 0	
3338 444 3 0.0000000000000000e+00 2.3453600000000002e+01 1.9242400000000000e+01 5.2999999999999998e+00 0 0 0	
3339 444 3 0.0000000000000000e+00 2.2219200000000001e+01 1.8529800000000002e+01 5.2999999999999998e+00 0 0 0	
3340 444 3 0.0000000000000000e+00 2.3453600000000002e+01 2.0667800000000000e+01 5.2999999999999998e+00 0 0 0	
3341 444 3 0.0000000000000000e+00 2.4687999999999999e+01 1.7104399999999998e+01 5.2999999999999998e+00 0 0 0	
3342 444 3 0.0000000000000000e+00 2.5922400000000000e+01 1.9242400000000000e+01 5.2999999999999998e+00 0 0 0	
3343 444 3 0.0000000000000000e+00 2.4687999999999999e+01 1.8529800000000002e+01 5.2999999999999998e+00 0 0 0	
3344 444 3 0.0000000000000000e+00 2.5922400000000000e+01 2.0667800000000000e+01 5.2999999999999998e+00 0 0 0	
3345 444 3 0.0000000000000000e+00 2.7156800000000000e+01 1.7104399999999998e+01 5.2999999999999998e+00 0 0 0	
3346 444 3 0.0000000000000000e+00 2.8391200000000001e+01 1.9242400000000000e+01 5.2999999999999998e+00 0 0 0	
3347 444 3 0.0000000000000000e+00 2.7156800000000000e+01 1.8529800000000002e+01 5.2999999999999998e+00 0 0 0	
3348 444 3 0.0000000000000000e+00 2.8391200000000001e+01 2.0667800000000000e+01 5.2999999999999998e+00 0 0 0	
3349 444 3 0.0000000000000000e+00 2.2219200000000001e+01 2.1380500000000001e+01 5.2999999999999998e+00 0 0 0	
3350 444 3 0.0000000000000000e+00 2.3453600000000002e+01 2.3518500000000000e+01 5.2999999999999998e+00 0 0 0	
3351 444 3 0.0000000000000000e+00 2.2219200000000001e+01 2.2805900000000001e+01 5.2999999999999998e+00 0 0 0	
3352 444 3 0.0000000000000000e+00 2.3453600000000002e+01 2.4943899999999999e+01 5.2999999999999998e+00 0 0 0	
3353 444 3 0.0000000000000000e+00 2.4687999999999999e+01 2.1380500000000001e+01 5.2999999999999998e+00 0 0 0	
3354 444 3 0.0000000000000000e+00 2.5922400000000000e+01 2.3518500000000000e+01 5.2999999999999998e+00 0 0 0	
3355 444 3 0.0000000000000000e+00 2.4687999999999999e+01 2.2805900000000001e+01 5.2999999999999998e+00 0 0 0	
3356 444 3 0.0000000000000000e+00 2.5922400000000000e+01 2.4943899999999999e+01 5.2999999999999998e+00 0 0 0	
3357 444 3 0.0000000000000000e+00 2.7156800000000000e+01 2.1380500000000001e+01 5.2999999999999998e+00 0 0 0	
3358 444 3 0.0000000000000000e+00 2.8391200000000001e+01 2.3518500000000000e+01 5.2999999999999998e+00 0 0 0	
3359 444 3 0.0000000000000000e+00 2.7156800000000000e+01 2.2805900000000001e+01 5.2999999999999998e+00 0 0 0	
3360 444 3 0.0000000000000000e+00 2.8391200000000001e+01 2.4943899999999999e+01 5.2999999999999998e+00 0 0 0	
3361 444 3 0.0000000000000000e+00 2.2219200000000001e+01 2.5656600000000001e+01 5.2999999999999998e+00 0 0 0	
3362 444 3 0.0000000000000000e+00 2.3453600000000002e+01 2.7794599999999999e+01 5.2999999999999998e+00 0 0 0	
3363 444 3 0.0000000000000000e+00 2.2219200000000001e+01 2.7082000000000001e+01 5.2999999999999998e+00 0 0 0	
3364 444 3 0.0000000000000000e+00 2.3453600000000002e+01 2.9219999999999999e+01 5.2999999999999998e+00 0 0 0	
3365 444 3 0.0000000000000000e+00 2.4687999999999999e+01 2.5656600000000001e+01 5.2999999999999998e+00 0 0 0	
3366 444 3 0.0000000000000000e+00 2.5922400000000000e+01 2.7794599999999999e+01 5.2999999999999998e+00 0 0 0	
3367 444 3 0.0000000000000000e+00 2.4687999999999999e+01 2.7082000000000001e+01 5.2999999999999998e+00 0 0 0	
3368 444 3 0.0000000000000000e+00 2.5922400000000000e+01 2.9219999999999999e+01 5.2999999999999998e+00 0 0 0	
3369 444 3 0.0000000000000000e+00 2.7156800000000000e+01 2.5656600000000001e+01 5.2999999999999998e+00 0 0 0	
3370 444 3 0.0000000000000000e+00 2.8391200000000001e+01 2.7794599999999999e+01 5.2999999999999998e+00 0 0 0	
3371 444 3 0.0000000000000000e+00 2.7156800000000000e+01 2.7082000000000001e+01 5.2999999999999998e+00 0 0 0	
3372 444 3 0.0000000000000000e+00 2.8391200000000001e+01 2.9219999999999999e+01 5.2999999999999998e+00 0 0 0	
3373 444 3 0.0000000000000000e+00 2.2219200000000001e+01 2.9932700000000001e+01 5.2999999999999998e+00 0 0 0	
3374 444 3 0.0000000000000000e+00 2.3453600000000002e+01 3.2070700000000002e+01 5.2999999999999998e+00 0 0 0	
3375 444 3 0.0000000000000000e+00 2.2219200000000001e+01 3.1358100000000000e+01 5.2999999999999998e+00 0 0 0	
3376 444 3 0.0000000000000000e+00 2.3453600000000002e+01 3.3496099999999998e+01 5.2999999999999998e+00 0 0 0	
3377 444 3 0.0000000000000000e+00 2.4687999999999999e+01 2.9932700000000001e+01 5.2999999999999998e+00 0 0 0	
3378 444 3 0.0000000000000000e+00 2.5922400000000000e+01 3.2070700000000002e+01 5.2999999999999998e+00 0 0 0	
3379 444 3 0.0000000000000000e+00 2.4687999999999999e+01 3.1358100000000000e+01 5.2999999999999998e+00 0 0 0	
3380 444 3 0.0000000000000000e+00 2.5922400000000000e+01 3.3496099999999998e+01 5.2999999999999998e+00 0 0 0	
3381 444 3 0.0000000000000000e+00 2.7156800000000000e+01 2.9932700000000001e+01 5.2999999999999998e+00 0 0 0	
3382 444 3 0.0000000000000000e+00 2.8391200000000001e+01 3.2070700000000002e+01 5.2999999999999998e+00 0 0 0	
3383 444 3 0.0000000000000000e+00 2.7156800000000000e+01 3.1358100000000000e+01 5.2999999999999998e+00 0 0 0	
3384 444 3 0.0000000000000000e+00 2.8391200000000001e+01 3.3496099999999998e+01 5.2999999999999998e+00 0 0 0	
617 444 2 5.2420000000000000e-01 2.7169637696749569e+00 1.1816041842384697e+00 8.5921616415155775e+00 1 1 0
695 444 2 5.2420000000000000e-01 4.9233508519157700e+00 1.8611786709968106e+00 8.6486919093332482e+00 3 1 0
1179 444 2 5.2420000000000000e-01 4.0696917423803824e-01 1.3389375166536428e+00 8.1515560256120381e+00 -6 -8 0
616 444 1 -1.0484000000000000e+00 2.0251035681034262e+00 5.6652831759386713e-01 8.3487619812728280e+00 1 1 0
849 444 2 5.2420000000000000e-01 3.4530060503919517e+00 3.2100307613904833e+00 1.0185805112573535e+01 4 4 0
847 444 1 -1.0484000000000000e+00 3.0271043210546007e+00 4.0436151936319851e+00 1.0385746603896067e+01 4 4 0
696 444 2 5.2420000000000000e-01 4.5763545775497096e+00 1.0563162028187838e+00 9.8830684909172781e+00 3 1 0
694 444 1 -1.0484000000000000e+00 4.4027151082412521e+00 1.8927693749948817e+00 9.4512955762134023e+00 3 1 0
1907 444 2 5.2420000000000000e-01 3.6946654383051669e-01 8.3766561642581328e-01 1.3729757135577275e+01 4 -7 0
751 444 1 -1.0484000000000000e+00 6.0473528981528357e+00 3.7415155920610038e-01 1.5320611411263496e+01 7 5 0
2298 444 2 5.2420000000000000e-01 6.0904998957433465e+00 3.5321202692297864e+00 1.0682327648627675e+01 8 -3 0
1581 444 2 5.2420000000000000e-01 1.7516259089690307e+00 3.2320407500650656e+00 1.3241924201194637e+01 -4 3 0
1908 444 2 5.2420000000000000e-01 1.8338592226963826e+00 1.2190546232933901e+00 1.3685128349314041e+01 4 -7 0
1906 444 1 -1.0484000000000000e+00 9.5395903411944083e-01 1.5803386225207452e+00 1.3577976935422967e+01 4 -7 0
1658 444 2 5.2420000000000000e-01 6.2408948719642527e+00 2.0458546511270468e+00 1.2768268066268634e+01 -6 7 0
2408 444 2 5.2420000000000000e-01 1.0567699187207993e+00 4.0639317358860580e+00 9.8854925027886793e+00 1 3 0
2296 444 1 -1.0484000000000000e+00 6.2482856718788833e+00 3.5948478772185108e+00 1.1624347316018662e+01 8 -3 0
2789 444 2 5.2420000000000000e-01 2.9297531182139096e+00 2.6424895461726718e+00 1.7423134650875127e+01 -3 -3 0
2009 444 2 5.2420000000000000e-01 5.2898101889768281e+00 3.9255321886240111e+00 1.6423228813031852e+01 -2 -3 0
1580 444 2 5.2420000000000000e-01 2.6326814493863084e+00 3.9184559044167275e+00 1.2219930620393551e+01 -4 3 0
753 444 2 5.2420000000000000e-01 6.1331368166535345e+00 1.0948869114002882e+00 1.5944641644500384e+01 7 5 0
1659 444 2 5.2420000000000000e-01 6.4044084094490499e+00 1.0015953175048840e+00 1.3852096323626505e+01 -6 7 0
2008 444 1 -1.0484000000000000e+00 6.1266272021976205e+00 4.1319266531756789e+00 1.6839608510040467e+01 -2 -3 0
1657 444 1 -1.0484000000000000e+00 6.5130463626146371e+00 1.1393436690842322e+00 1.2911109160764431e+01 -6 7 0
1579 444 1 -1.0484000000000000e+00 2.3564513678535475e+00 3.9662204270023489e+00 1.3135161473617606e+01 -4 3 0
435 444 2 5.2420000000000000e-01 3.2548790213453813e+00 3.9808023659265785e+00 1.5109473357937873e+01 -1 -11 0
433 444 1 -1.0484000000000000e+00 3.5701592371906590e+00 4.0047874223083078e+00 1.6012942082441931e+01 -1 -11 0
2407 444 1 -1.0484000000000000e+00 1.0702859147979764e-01 3.9857427091576541e+00 9.9755473128244159e+00 1 3 0
2010 444 2 5.2420000000000000e-01 6.7488064762044866e+00 4.1857705434484060e+00 1.6114193188469045e+01 -2 -3 0
2297 444 2 5.2420000000000000e-01 5.5159465073654745e+00 4.1142029086097009e+00 1.1956283563194168e+01 8 -3 0
1830 444 2 5.2420000000000000e-01 3.0811227047553733e+00 3.8500220707766064e+00 2.1032293150065009e+01 7 -3 0
2944 444 1 -1.0484000000000000e+00 6.3308485796448686e+00 3.9078947683692502e+00 2.2522324077542550e+01 1 0 0
945 444 2 5.2420000000000000e-01 3.7600817938358944e+00 2.0800557429423155e-01 2.1221100343121975e+01 -2 5 0
2954 444 2 5.2420000000000000e-01 1.5245637879163652e+00 2.7422840635998191e-01 2.0399705769521603e+01 -4 -13 0
108 444 2 5.2420000000000000e-01 6.3213138490196226e+00 1.8550578483075166e+00 2.4735151628232643e+01 1 4 0
93 444 2 5.2420000000000000e-01 5.9806031343448316e+00 2.6237660229056248e+00 1.7918216944882381e+01 -2 2 0
2705 444 2 5.2420000000000000e-01 2.1894943514936638e+00 1.5773462234030828e+00 2.4385525036595016e+01 5 2 0
2704 444 1 -1.0484000000000000e+00 1.8394575483335474e+00 2.4322026260411413e+00 2.4636378545663398e+01 5 2 0
2788 444 1 -1.0484000000000000e+00 3.1329406651900196e+00 2.2419893308283911e+00 1.8268443147119179e+01 -3 -3 0
1460 444 2 5.2420000000000000e-01 4.2902035261267479e-01 2.9545721347483398e+00 2.1857041661917638e+01 4 0 0
2955 444 2 5.2420000000000000e-01 2.4779268707229427e+00 1.2883542310175866e+00 1.9804268365634819e+01 -4 -13 0
2706 444 2 5.2420000000000000e-01 2.1461162777390919e+00 3.0272574672197905e+00 2.3952198371109915e+01 5 2 0
107 444 2 5.2420000000000000e-01 5.1411606517152428e+00 9.9942981762673566e-01 2.4326451847000225e+01 1 4 0
2790 444 2 5.2420000000000000e-01 4.0249185816902333e+00 1.9094715814530989e+00 1.8168247143076464e+01 -3 -3 0
92 444 2 5.2420000000000000e-01 6.3130053451860935e+00 1.3243732295539301e+00 1.8620344736346606e+01 -2 2 0
91 444 1 -1.0484000000000000e+00 5.6836795428569244e+00 1.7191313264355133e+00 1.8016732513162115e+01 -2 2 0
106 444 1 -1.0484000000000000e+00 5.7273604290136673e+00 1.6841077118608632e+00 2.4004242681686609e+01 1 4 0
2946 444 2 5.2420000000000000e-01 5.9130043415428890e+00 3.1907808557923336e+00 2.2999173956129436e+01 1 0 0
1459 444 1 -1.0484000000000000e+00 1.3696582721854866e+00 3.1308137805306799e+00 2.1876308865793231e+01 4 0 0
1461 444 2 5.2420000000000000e-01 1.7721510619095910e+00 2.3200779416821229e+00 2.1564958563816518e+01 4 0 0
2953 444 1 -1.0484000000000000e+00 2.0846267878616125e+00 1.0146240372824087e+00 2.0632893743679130e+01 -4 -13 0
824 444 2 5.2420000000000000e-01 2.7953841556362033e+00 2.6962357385090021e+00 2.6013015651627303e+01 -8 -2 0
1533 444 2 5.2420000000000000e-01 6.6848243282859290e+00 8.0590772007257705e-01 2.2766595057843244e+01 4 1 0
24 444 2 5.2420000000000000e-01 2.9705952594035898e-02 1.9864025981009283e+00 2.4732800976055000e+01 -1 1 0
1199 444 2 5.2420000000000000e-01 8.9748975244628493e-01 3.4517603546356836e+00 1.9800651061510603e+01 15 2 0
1198 444 1 -1.0484000000000000e+00 3.5827095420265898e-01 4.0121395814832210e+00 1.9242573836518105e+01 15 2 0
1531 444 1 -1.0484000000000000e+00 6.9270113485098426e+00 3.5907708377230385e-01 2.1955472557777288e+01 4 1 0
1828 444 1 -1.0484000000000000e+00 3.9603326764672531e+00 4.1917205482615572e+00 2.1194971469327481e+01 7 -3 0
1532 444 2 5.2420000000000000e-01 6.0922148892402825e+00 1.7158793696836666e-01 2.1526293560089538e+01 4 1 0
2945 444 2 5.2420000000000000e-01 5.6378320023619999e+00 4.2610651054077042e+00 2.1964443485550660e+01 1 0 0
1685 444 2 5.2420000000000000e-01 4.5048378388017571e+00 9.0116675701009702e-02 3.4332414337030130e+01 5 1 0
1482 444 2 5.2420000000000000e-01 9.9563180293412823e-01 1.6117864328565517e+00 2.8898827117445077e+01 -5 3 0
2236 444 1 -1.0484000000000000e+00 7.1079043452508479e+00 3.1394878264424597e+00 2.8202914655202978e+01 3 -4 0
2238 444 2 5.2420000000000000e-01 6.6022496898044309e+00 2.3386064524033299e+00 2.8064587651108834e+01 3 -4 0
2632 444 1 -1.0484000000000000e+00 5.0655453265434502e+00 3.7332318850169410e+00 3.0191797413954951e+01 -4 2 0
2280 444 2 5.2420000000000000e-01 9.1521892594749610e-01 1.3835803798976973e+00 3.5256320554852941e+01 2 1 0
557 444 2 5.2420000000000000e-01 2.5961199372943167e+00 3.8670227916243611e+00 3.1448899915705624e+01 0 0 0
2279 444 2 5.2420000000000000e-01 2.4165446984522552e+00 1.1894381144119959e+00 3.5271344027634200e+01 2 1 0
556 444 1 -1.0484000000000000e+00 1.7916094581501230e+00 3.4771774708363501e+00 3.1106824679047769e+01 0 0 0
1481 444 2 5.2420000000000000e-01 1.6926203772122923e+00 2.6355704267413689e+00 2.9769441265360829e+01 -5 3 0
2486 444 2 5.2420000000000000e-01 4.1815129499774244e+00 2.7631996881905909e+00 3.3875623943892840e+01 2 0 0
2634 444 2 5.2420000000000000e-01 5.6074531176190456e+00 3.5906833093562538e+00 2.9415750894500174e+01 -4 2 0
1388 444 2 5.2420000000000000e-01 4.8583211007188840e+00 1.7199662870343986e+00 3.0341035420980738e+01 1 -6 0
2957 444 2 5.2420000000000000e-01 1.3300512314825217e+00 1.9883418809512685e+00 3.2121049909070813e+01 -8 6 0
1389 444 2 5.2420000000000000e-01 5.5324803521121044e+00 4.2957552381532543e-01 3.0756121316612777e+01 1 -6 0
2860 444 1 -1.0484000000000000e+00 6.0071270454383248e+00 9.7674293862603134e-01 3.3811232819778198e+01 -3 0 0
2862 444 2 5.2420000000000000e-01 6.5533363885046896e+00 1.7563920890810059e+00 3.3911411127579576e+01 -3 0 0
1298 444 2 5.2420000000000000e-01 5.3728491721353890e+00 9.4593654257674598e-01 2.8471200171669945e+01 0 -1 0
1297 444 1 -1.0484000000000000e+00 5.4741430663551478e+00 1.0698731357343163e+00 2.7527478176302708e+01 0 -1 0
823 444 1 -1.0484000000000000e+00 3.1575934697545236e+00 3.1150711699405904e+00 2.6793793053861336e+01 -8 -2 0
2487 444 2 5.2420000000000000e-01 2.8653312578232017e+00 3.2677909360427271e+00 3.4427845916160557e+01 2 0 0
2861 444 2 5.2420000000000000e-01 6.5100730519233458e+00 4.0416583549772717e-01 3.3232066683548524e+01 -3 0 0
1299 444 2 5.2420000000000000e-01 4.7334693445400058e+00 1.6220848537193782e+00 2.7277084172785674e+01 0 -1 0
2956 444 1 -1.0484000000000000e+00 1.2677439465642966e+00 1.0471189098652087e+00 3.2283683247921537e+01 -8 6 0
2485 444 1 -1.0484000000000000e+00 3.6689243905048836e+00 3.5621033689408015e+00 3.3999066832670010e+01 2 0 0
825 444 2 5.2420000000000000e-01 2.6304379833278775e+00 2.7732329835428473e+00 2.7515932798570223e+01 -8 -2 0
1480 444 1 -1.0484000000000000e+00 1.7355461979605991e+00 2.2189606267554778e+00 2.8908728774927702e+01 -5 3 0
1387 444 1 -1.0484000000000000e+00 4.9231770340355450e+00 7.9252288149528627e-01 3.0113275611993270e+01 1 -6 0
2958 444 2 5.2420000000000000e-01 1.8755386629291524e+00 8.8758716709021024e-01 3.3005740912802544e+01 -8 6 0
2278 444 1 -1.0484000000000000e+00 1.7396602750882935e+00 1.8628595063089144e+00 3.5338903269403858e+01 2 1 0
558 444 2 5.2420000000000000e-01 1.2360402769343524e+00 4.2255894312638054e+00 3.0888980567770606e+01 0 0 0
42 444 2 5.2420000000000000e-01 6.1944573960995228e+00 5.1659732144323804e+00 8.1412488616660053e+00 -5 2 0
1415 444 2 5.2420000000000000e-01 3.5244596160683583e+00 6.6947318036409973e+00 8.8535283964327682e+00 -7 2 0
40 444 1 -1.0484000000000000e+00 6.8481523950373973e+00 4.6070094777221549e+00 8.5613375099863429e+00 -5 2 0
2950 444 1 -1.0484000000000000e+00 7.3285707660289567e+00 4.5901146833382258e+00 1.4360093599571719e+01 -3 1 0
1414 444 1 -1.0484000000000000e+00 4.3715776102942350e+00 6.2515029761797747e+00 8.9001354405194437e+00 -7 2 0
434 444 2 5.2420000000000000e-01 3.4089725890144535e+00 4.9037240208993182e+00 1.6299585358016881e+01 -1 -11 0
1638 444 2 5.2420000000000000e-01 1.5204581738797593e+00 6.8475541841606269e+00 1.0141654531747189e+01 11 1 0
8 444 2 5.2420000000000000e-01 1.4400495544413197e+00 6.5178238576516341e+00 1.2919911932759748e+01 -1 -2 0
2913 444 2 5.2420000000000000e-01 4.9848050884664730e+00 6.8775593310482481e+00 1.2193767942985831e+01 6 -1 0
2912 444 2 5.2420000000000000e-01 6.4165674852946095e+00 7.2195704252211153e+00 1.1840241844286153e+01 6 -1 0
2911 444 1 -1.0484000000000000e+00 5.5114693854594234e+00 7.3854171030673754e+00 1.1576566193230262e+01 6 -1 0
985 444 1 -1.0484000000000000e+00 1.7947758251446428e+00 7.8045502918998171e+00 1.4574855450109689e+01 2 0 0
285 444 2 5.2420000000000000e-01 4.4486498709580777e+00 6.1836385866681187e+00 1.4525602128605907e+01 8 -4 0
283 444 1 -1.0484000000000000e+00 4.4389257516425120e+00 5.7031562437661298e+00 1.3697789275597250e+01 8 -4 0
395 444 2 5.2420000000000000e-01 3.1643912754541721e+00 7.1797083214999438e+00 1.5655728847739100e+01 0 -1 0
1416 444 2 5.2420000000000000e-01 4.8422942391890071e+00 6.7063208944558914e+00 9.5985614494052918e+00 -7 2 0
396 444 2 5.2420000000000000e-01 4.4194277522233572e+00 7.5620342575709421e+00 1.6411113263715926e+01 0 -1 0
394 444 1 -1.0484000000000000e+00 4.0050053227049753e+00 6.8311419720944411e+00 1.5952547666727181e+01 0 -1 0
987 444 2 5.2420000000000000e-01 9.6992192145906697e-01 7.3512476753238012e+00 1.4749111626229913e+01 2 0 0
1636 444 1 -1.0484000000000000e+00 1.8001820548528309e+00 6.8802370676638205e+00 9.2268219727118304e+00 11 1 0
848 444 2 5.2420000000000000e-01 3.4766460897457603e+00 4.6817564646462015e+00 9.8317431821068269e+00 4 4 0
9 444 2 5.2420000000000000e-01 7.1903282722602024e-01 5.5153291508370108e+00 1.2044106404967275e+01 -1 -2 0
1637 444 2 5.2420000000000000e-01 1.6553323910825684e+00 7.7891505730589117e+00 8.9639019894968435e+00 11 1 0
7 444 1 -1.0484000000000000e+00 8.8104020017981721e-01 6.4532451707736112e+00 1.2145592566337804e+01 -1 -2 0
2952 444 2 5.2420000000000000e-01 6.5368159181816923e+00 5.0376299815213255e+00 1.4061619404773399e+01 -3 1 0
1379 444 2 5.2420000000000000e-01 6.5604326477708197e-01 6.1255481319230825e+00 1.7106217040820450e+01 5 -4 0
284 444 2 5.2420000000000000e-01 3.6764496084030673e+00 5.1281673781960375e+00 1.3762985904909002e+01 8 -4 0
2682 444 2 5.2420000000000000e-01 2.3416337583168763e+00 8.5079404698958552e+00 1.1321441152685130e+01 9 3 0
90 444 2 5.2420000000000000e-01 4.3183931922698227e+00 5.1286954978255963e+00 2.5889192088573456e+01 -5 1 0
2513 444 2 5.2420000000000000e-01 3.4184208130695737e+00 7.0171037600893733e+00 2.3251212424566848e+01 0 -1 0
2726 444 2 5.2420000000000000e-01 2.5615298001402938e-03 5.9966890863929336e+00 2.1935628327865853e+01 -1 -3 0
2512 444 1 -1.0484000000000000e+00 3.9232038455614542e+00 7.8224098112060512e+00 2.3137598121037374e+01 0 -1 0
1829 444 2 5.2420000000000000e-01 4.0476614722230275e+00 4.9276914147266009e+00 2.0589203941573892e+01 7 -3 0
2129 444 2 5.2420000000000000e-01 3.4127968236430313e+00 4.9815644174058216e+00 2.2821587193487893e+01 2 10 0
1485 444 2 5.2420000000000000e-01 6.6651620052951337e+00 7.2499898689048914e+00 2.4767315289399953e+01 4 -3 0
1484 444 2 5.2420000000000000e-01 5.3616686443406509e+00 7.9908425813035633e+00 2.4557698235417998e+01 4 -3 0
1098 444 2 5.2420000000000000e-01 6.2639871708446142e+00 7.7268904853934304e+00 2.1102736255630600e+01 -4 4 0
2727 444 2 5.2420000000000000e-01 9.4235199603962438e-01 7.1797538453195298e+00 2.1840507888068721e+01 -1 -3 0
2725 444 1 -1.0484000000000000e+00 7.4713185436917740e-01 6.4090634327503482e+00 2.2373572774543316e+01 -1 -3 0
2358 444 2 5.2420000000000000e-01 3.9998743483117436e+00 5.6863440482474736e+00 1.8434316296139915e+01 7 -1 0
2357 444 2 5.2420000000000000e-01 5.3659156504008827e+00 5.6536740150064260e+00 1.9086051738699695e+01 7 -1 0
2356 444 1 -1.0484000000000000e+00 4.4823306154944973e+00 6.0045652452669955e+00 1.9197338622686942e+01 7 -1 0
2514 444 2 5.2420000000000000e-01 4.4009844401100660e+00 7.6926032958865047e+00 2.2318386404428150e+01 0 -1 0
2130 444 2 5.2420000000000000e-01 2.0305021988728802e+00 5.4636634647484623e+00 2.3207252242278770e+01 2 10 0
1378 444 1 -1.0484000000000000e+00 1.3050598697525959e+00 6.0450334169351203e+00 1.7805164699560567e+01 5 -4 0
761 444 2 5.2420000000000000e-01 1.7467876629899233e+00 4.5663632625139856e+00 2.6378247020784311e+01 -4 0 0
1097 444 2 5.2420000000000000e-01 5.2328297876630030e+00 7.4264016210355424e+00 2.0035816669597015e+01 -4 4 0
88 444 1 -1.0484000000000000e+00 4.5583002844117608e+00 5.7712943721753822e+00 2.6556832173862169e+01 -5 1 0
1096 444 1 -1.0484000000000000e+00 5.3832628374805234e+00 7.9646910202162537e+00 2.0812893015806832e+01 -4 4 0
2128 444 1 -1.0484000000000000e+00 2.9375862181686649e+00 5.4435059473546490e+00 2.3512251207040688e+01 2 10 0
89 444 2 5.2420000000000000e-01 4.5033321863087865e+00 6.6151783071114041e+00 2.6108423145524576e+01 -5 1 0
1380 444 2 5.2420000000000000e-01 1.5043421119894067e+00 6.9479194446103101e+00 1.8052784955556785e+01 5 -4 0
1483 444 1 -1.0484000000000000e+00 6.0117338362072168e+00 7.7771825194428317e+00 2.5227024594890022e+01 4 -3 0
1520 444 2 5.2420000000000000e-01 7.1476974480381665e+00 5.1962412095773729e+00 2.3361407127300449e+01 -2 7 0
762 444 2 5.2420000000000000e-01 1.8938320221991667e+00 5.7132576520150824e+00 2.5401053823647491e+01 -4 0 0
760 444 1 -1.0484000000000000e+00 1.4053735379560994e+00 5.4376008101755628e+00 2.6176717461334835e+01 -4 0 0
1200 444 2 5.2420000000000000e-01 9.8230386787916857e-01 4.6036924269112411e+00 1.8822000747987900e+01 15 2 0
680 444 2 5.2420000000000000e-01 6.9380968956203137e+00 4.9809784694577255e+00 1.8184044022300277e+01 -2 3 0
679 444 1 -1.0484000000000000e+00 6.9258705168103694e+00 5.4314173262955645e+00 1.9028549409367141e+01 -2 3 0
916 444 1 -1.0484000000000000e+00 3.8035263421975074e+00 8.2753474043187669e+00 3.0205797231412355e+01 -2 -1 0
1 444 1 -1.0484000000000000e+00 1.4158906957202860e-01 5.5945605885703822e+00 3.0605672653821188e+01 -1 3 0
2 444 2 5.2420000000000000e-01 5.6525922561331411e-02 6.5378920837834720e+00 3.0467390832399239e+01 -1 3 0
917 444 2 5.2420000000000000e-01 3.5714966158790786e+00 8.3431317011998622e+00 3.1131972035551915e+01 -2 -1 0
2633 444 2 5.2420000000000000e-01 4.4834167125179878e+00 4.4532547246764587e+00 2.9949050372025756e+01 -4 2 0
2214 444 2 5.2420000000000000e-01 7.2729504263972222e+00 5.2057852344723878e+00 2.7654234018949772e+01 -1 7 0
2594 444 2 5.2420000000000000e-01 4.8089072062248013e+00 5.1663381210609352e+00 3.4823178055984151e+01 -10 0 0
2252 444 2 5.2420000000000000e-01 1.9076570123576968e+00 6.8335351361979209e+00 3.4179380088597242e+01 5 -3 0
2701 444 1 -1.0484000000000000e+00 3.0278907301892786e+00 5.6406573991668569e+00 2.9194270016877475e+01 -2 0 0
2251 444 1 -1.0484000000000000e+00 1.2559274592968004e+00 7.1624066859816828e+00 3.4798513172425359e+01 5 -3 0
1001 444 2 5.2420000000000000e-01 7.3071399153247363e+00 6.3364072325853176e+00 3.4732455456908347e+01 0 -1 0
2213 444 2 5.2420000000000000e-01 6.8664623971210670e+00 6.3751981819661481e+00 2.6782949799787296e+01 -1 7 0
1208 444 2 5.2420000000000000e-01 6.4940281657589276e+00 6.4494558450205242e+00 3.1562831612749800e+01 2 -1 0
2253 444 2 5.2420000000000000e-01 8.6493376017155821e-01 7.9165608158678875e+00 3.4357369066067257e+01 5 -3 0
1874 444 2 5.2420000000000000e-01 3.1472432446079743e+00 5.3207867705176017e+00 3.3408001440372416e+01 3 5 0
1209 444 2 5.2420000000000000e-01 5.8466521448130777e+00 5.0831607246765769e+00 3.1485129391081085e+01 2 -1 0
2703 444 2 5.2420000000000000e-01 2.0864151830065838e+00 5.5934883089659921e+00 2.9360495507732558e+01 -2 0 0
1207 444 1 -1.0484000000000000e+00 5.8191441407689455e+00 5.9072748277646996e+00 3.1971248344484888e+01 2 -1 0
1875 444 2 5.2420000000000000e-01 3.9781215011343085e+00 6.2973146448008599e+00 3.2603060381198503e+01 3 5 0
1873 444 1 -1.0484000000000000e+00 3.1388753201772257e+00 6.2105310847039013e+00 3.3055130483974445e+01 3 5 0
2702 444 2 5.2420000000000000e-01 3.1118439243001275e+00 5.5076686444631120e+00 2.8250078224241843e+01 -2 0 0
918 444 2 5.2420000000000000e-01 3.4998946529423680e+00 7.4057458699146999e+00 2.9945348055368509e+01 -2 -1 0
2780 444 2 5.2420000000000000e-01 4.4261134018232635e+00 8.5011798597248411e+00 2.7954312583971284e+01 -1 1 0
2871 444 2 5.2420000000000000e-01 2.7689701583110637e+00 7.8968041567692264e+00 3.5718851410206909e+01 0 4 0
1225 444 1 -1.0484000000000000e+00 6.6018297573291491e+00 8.0203960052098395e+00 3.6728093211151730e+01 0 -3 0
2595 444 2 5.2420000000000000e-01 4.8930629295832979e+00 4.7953912694953829e+00 3.6288514844641327e+01 -10 0 0
2869 444 1 -1.0484000000000000e+00 3.6069259365398065e+00 7.8863590177459901e+00 3.6181402534012797e+01 0 4 0
2870 444 2 5.2420000000000000e-01 3.9881302826535414e+00 7.0346174540986901e+00 3.5968207719389888e+01 0 4 0
1227 444 2 5.2420000000000000e-01 6.1536179930802595e+00 7.1750533879629019e+00 3.6700997124462205e+01 0 -3 0
2593 444 1 -1.0484000000000000e+00 5.0304777311237459e+00 5.5238858897551273e+00 3.5683002811257992e+01 -10 0 0
1168 444 1 -1.0484000000000000e+00 1.7658660926576255e+00 1.1417841035132772e+01 8.8255925995089299e+00 -7 2 0
1170 444 2 5.2420000000000000e-01 2.4297165145139892e+00 1.2060483525903296e+01 8.5755006305313355e+00 -7 2 0
1443 444 2 5.2420000000000000e-01 7.2590774521636767e+00 1.2815813286522344e+01 8.3835872475029785e+00 -1 -2 0
2186 444 2 5.2420000000000000e-01 2.7054547257850137e-01 1.2489632521625234e+01 8.2079552561764579e+00 9 -6 0
986 444 2 5.2420000000000000e-01 1.5358497929983586e+00 8.6111781455164849e+00 1.4129275964918325e+01 2 0 0
653 444 2 5.2420000000000000e-01 4.7679782321103349e-02 9.2228826856472228e+00 1.0037309989150254e+01 -1 -4 0
2842 444 1 -1.0484000000000000e+00 6.2138598341486651e+00 1.1270604021152428e+01 1.5971804330654336e+01 -6 1 0
2843 444 2 5.2420000000000000e-01 6.7637049608191884e+00 1.1529113194688886e+01 1.6711450014920445e+01 -6 1 0
2844 444 2 5.2420000000000000e-01 5.3522877543074294e+00 1.1635195230716148e+01 1.6174286499015725e+01 -6 1 0
938 444 2 5.2420000000000000e-01 6.9799429683904926e+00 1.0788090393704593e+01 1.4499587860572912e+01 1 -3 0
973 444 1 -1.0484000000000000e+00 2.1861453172965497e+00 1.2371163049873418e+01 1.3363607742672748e+01 -6 -2 0
1169 444 2 5.2420000000000000e-01 1.9806262286000420e+00 1.1190612307792412e+01 9.7302899904343327e+00 -7 2 0
939 444 2 5.2420000000000000e-01 6.7111088616486976e+00 1.0468182338824812e+01 1.3044499006611106e+01 1 -3 0
170 444 2 5.2420000000000000e-01 6.6531863076884008e+00 1.0672670039085860e+01 1.0359510713365685e+01 3 -1 0
1305 444 2 5.2420000000000000e-01 5.6327571015088322e+00 9.6743244592281084e+00 1.6296199101294945e+01 -6 -2 0
1303 444 1 -1.0484000000000000e+00 5.2676565246208975e+00 8.9302112005199419e+00 1.6774979835137618e+01 -6 -2 0
169 444 1 -1.0484000000000000e+00 6.1904738982582970e+00 1.0337808629984265e+01 1.1127624338813677e+01 3 -1 0
2681 444 2 5.2420000000000000e-01 1.5507854002557235e+00 9.6603488560299215e+00 1.1903170480991735e+01 9 3 0
171 444 2 5.2420000000000000e-01 5.9904372955039280e+00 9.4275470099387118e+00 1.0909355470927922e+01 3 -1 0
2680 444 1 -1.0484000000000000e+00 1.9893617030914601e+00 9.3707764881208941e+00 1.1103151322681729e+01 9 3 0
975 444 2 5.2420000000000000e-01 2.6171800437732777e+00 1.2313101137408822e+01 1.4216291660526924e+01 -6 -2 0
1720 444 1 -1.0484000000000000e+00 4.5332575995471669e-01 1.1096804342848637e+01 1.7424658529820988e+01 -4 -2 0
280 444 1 -1.0484000000000000e+00 3.7168029368742199e+00 1.2421082643308592e+01 1.5689570258071337e+01 -7 -5 0
1304 444 2 5.2420000000000000e-01 4.6261194033556228e+00 9.3188798623417703e+00 1.7369621877028404e+01 -6 -2 0
654 444 2 5.2420000000000000e-01 6.8441336958693000e-01 1.0169568783560294e+01 9.0421964291873298e+00 -1 -4 0
1410 444 2 5.2420000000000000e-01 1.3559770640227053e+00 1.0956192738081816e+01 1.3367822520757773e+01 3 8 0
1408 444 1 -1.0484000000000000e+00 8.4970800655098178e-01 1.0145840340170052e+01 1.3310784382522014e+01 3 8 0
1913 444 2 5.2420000000000000e-01 4.7710194935705434e+00 1.1237158126818388e+01 1.1041237785936870e+01 -1 3 0
1721 444 2 5.2420000000000000e-01 1.1208256509322767e+00 1.1738774588961032e+01 1.7666632556095244e+01 -4 -2 0
1914 444 2 5.2420000000000000e-01 3.9724480196797778e+00 1.2209461558951480e+01 1.0199331968845453e+01 -1 3 0
282 444 2 5.2420000000000000e-01 3.2413101937945683e+00 1.1990947113459553e+01 1.6400289890832703e+01 -7 -5 0
1912 444 1 -1.0484000000000000e+00 4.0374338490481065e+00 1.1850533472266715e+01 1.1084306286684027e+01 -1 3 0
974 444 2 5.2420000000000000e-01 2.8692246413078162e+00 1.2142307862899127e+01 1.2733322111526174e+01 -6 -2 0
1468 444 1 -1.0484000000000000e+00 4.5513198673081821e+00 1.2167364785859808e+01 2.1682074966186061e+01 -2 10 0
2660 444 2 5.2420000000000000e-01 9.9572546310458199e-02 1.0853721603514476e+01 2.3619837072410043e+01 -4 4 0
2460 444 2 5.2420000000000000e-01 1.7793398479676856e-01 9.3185225177356585e+00 2.1842337485389550e+01 -1 -6 0
664 444 1 -1.0484000000000000e+00 1.3537358749604171e+00 8.7834590326077144e+00 1.8428563414081086e+01 9 2 0
665 444 2 5.2420000000000000e-01 1.2763256130046496e+00 8.7656402222997905e+00 1.9382462571222277e+01 9 2 0
1722 444 2 5.2420000000000000e-01 7.0455016187945319e-01 1.0301025372652754e+01 1.7893545589677828e+01 -4 -2 0
2246 444 2 5.2420000000000000e-01 4.5111765909650412e+00 1.0159862658421110e+01 1.9591012199447899e+01 4 2 0
1526 444 2 5.2420000000000000e-01 3.2932975604503434e+00 9.4102125728110977e+00 2.2740227983684260e+01 4 -5 0
2459 444 2 5.2420000000000000e-01 1.6063056550331369e+00 9.4030050066885948e+00 2.1347855235265772e+01 -1 -6 0
666 444 2 5.2420000000000000e-01 2.2649535382581893e+00 9.0275294180363552e+00 1.8266252040538195e+01 9 2 0
321 444 2 5.2420000000000000e-01 2.8626356451017188e-02 9.4408663043736798e+00 2.5273305828983602e+01 2 9 0
320 444 2 5.2420000000000000e-01 8.3070042526108079e-01 9.8509701200618132e+00 2.6490017610205335e+01 2 9 0
2245 444 1 -1.0484000000000000e+00 3.9545585790064046e+00 1.0451848681994617e+01 1.8869103092107704e+01 4 2 0
1527 444 2 5.2420000000000000e-01 3.5673396326190470e+00 1.0755179021769141e+01 2.2101586100473863e+01 4 -5 0
72 444 2 5.2420000000000000e-01 1.7385519026904153e+00 1.1820171908841415e+01 2.3284126855394756e+01 11 9 0
70 444 1 -1.0484000000000000e+00 1.9018317407737713e+00 1.2008344658670504e+01 2.4208336449767629e+01 11 9 0
2247 444 2 5.2420000000000000e-01 3.8740604205094606e+00 1.1397265916826507e+01 1.8995351140007440e+01 4 2 0
71 444 2 5.2420000000000000e-01 1.6527774928843610e+00 1.1204554035175978e+01 2.4664546015517214e+01 11 9 0
1469 444 2 5.2420000000000000e-01 3.6968825753522663e+00 1.2527339109424151e+01 2.1444191394030732e+01 -2 10 0
1746 444 2 5.2420000000000000e-01 6.2840570382205492e+00 1.1977877712723199e+01 2.0750504421086188e+01 -1 -2 0
1525 444 1 -1.0484000000000000e+00 2.8557398977931734e+00 1.0159364638728361e+01 2.2335817153904010e+01 4 -5 0
2458 444 1 -1.0484000000000000e+00 7.9007353409699499e-01 8.9184009702099001e+00 2.1224745437928846e+01 -1 -6 0
319 444 1 -1.0484000000000000e+00 5.2729341182963529e-01 1.0170809746597298e+01 2.5640383145587784e+01 2 9 0
1470 444 2 5.2420000000000000e-01 4.7060116022659839e+00 1.2484422190254429e+01 2.2571894154427248e+01 -2 10 0
1163 444 2 5.2420000000000000e-01 4.9301306537084271e+00 1.2745104236378754e+01 2.5360106052163335e+01 1 -4 0
1164 444 2 5.2420000000000000e-01 3.7005408017545180e+00 1.2564651230329003e+01 2.4495559008185904e+01 1 -4 0
1744 444 1 -1.0484000000000000e+00 7.2298631288009192e+00 1.1879071963684714e+01 2.0641322845733594e+01 -1 -2 0
2480 444 2 5.2420000000000000e-01 7.4059301194148857e+00 9.5985651166405965e+00 2.3376258011126776e+01 -4 -1 0
601 444 1 -1.0484000000000000e+00 4.8452784105824236e+00 1.1686527491073843e+01 2.7327160928110278e+01 -1 1 0
1283 444 2 5.2420000000000000e-01 1.2841102616725115e+00 9.0685986825807952e+00 2.8978876903979700e+01 0 0 0
602 444 2 5.2420000000000000e-01 4.5817773541331457e+00 1.0771406573872538e+01 2.7423875914350980e+01 -1 1 0
1284 444 2 5.2420000000000000e-01 2.4736255199781554e+00 9.0675626264909717e+00 2.8042421921402521e+01 0 0 0
2781 444 2 5.2420000000000000e-01 5.2113654846192023e+00 8.6475280299324329e+00 2.6668288272168589e+01 -1 1 0
2766 444 2 5.2420000000000000e-01 6.1127345168943874e+00 1.2306345965479872e+01 3.0552190145228426e+01 -3 -2 0
603 444 2 5.2420000000000000e-01 4.1374681174783428e+00 1.2184570971483014e+01 2.7736049649014021e+01 -1 1 0
1282 444 1 -1.0484000000000000e+00 1.5947370828579650e+00 9.4313710506771589e+00 2.8149335279120599e+01 0 0 0
1891 444 1 -1.0484000000000000e+00 5.0134089396881203e+00 1.1000728850320264e+01 3.1213818770795591e+01 7 9 0
451 444 1 -1.0484000000000000e+00 5.5016463358394256e+00 9.9926216890621262e+00 3.4999723561673548e+01 -4 -1 0
1893 444 2 5.2420000000000000e-01 4.6806864580587968e+00 1.0491238915486102e+01 3.0474935905789557e+01 7 9 0
1146 444 2 5.2420000000000000e-01 1.2776903073103263e-01 1.2070205317476059e+01 3.2199559051083320e+01 -4 2 0
39 444 2 5.2420000000000000e-01 1.9201637872466115e+00 1.2661597179816638e+01 2.8243842497487528e+01 -2 7 0
2657 444 2 5.2420000000000000e-01 3.7295394913223996e+00 1.0902009176024066e+01 3.2584750896031728e+01 -1 -2 0
1649 444 2 5.2420000000000000e-01 7.1766437420889115e+00 9.8861727515786324e+00 3.4556396706972329e+01 2 2 0
2658 444 2 5.2420000000000000e-01 3.2504530657643307e+00 1.1339298729747764e+01 3.3952650925207429e+01 -1 -2 0
452 444 2 5.2420000000000000e-01 4.7276861803244596e+00 9.7234552313055609e+00 3.4504983578452489e+01 -4 -1 0
2656 444 1 -1.0484000000000000e+00 3.2212183583228491e+00 1.0604889731038998e+01 3.3339445025447404e+01 -1 -2 0
2779 444 1 -1.0484000000000000e+00 4.4253801033749021e+00 8.9617437689796517e+00 2.7115198142794942e+01 -1 1 0
485 444 2 5.2420000000000000e-01 1.6651811003853143e+00 1.0517477041058484e+01 3.2427415765737322e+01 -4 -3 0
484 444 1 -1.0484000000000000e+00 7.8501025453205597e-01 1.0383260349571152e+01 3.2075964001967549e+01 -4 -3 0
1892 444 2 5.2420000000000000e-01 5.8056478695436882e+00 1.0538133703382002e+01 3.1486943507543973e+01 7 9 0
2669 444 2 5.2420000000000000e-01 7.2142109316050682e+00 1.1328658909077527e+01 2.7102349765713075e+01 5 0 0
486 444 2 5.2420000000000000e-01 2.8644665190940499e-01 1.0022034116000784e+01 3.2808891588837518e+01 -4 -3 0
2466 444 2 5.2420000000000000e-01 2.0711434178282920e-01 1.1145765083858253e+01 2.8813891345421293e+01 -8 2 0
2248 444 1 -1.0484000000000000e+00 5.8736150422667066e+00 1.2629421395131448e+01 3.6992144790120939e+01 -3 0 0
2249 444 2 5.2420000000000000e-01 6.6526558969049159e+00 1.2579712803655321e+01 3.7546090953247869e+01 -3 0 0
2250 444 2 5.2420000000000000e-01 5.2177460389377623e+00 1.2106172058752719e+01 3.7452881051744562e+01 -3 0 0
1226 444 2 5.2420000000000000e-01 6.0319666787980060e+00 8.6101116444728056e+00 3.6234408713428500e+01 0 -3 0
372 444 2 5.2420000000000000e-01 3.0024198585675252e+00 1.1095870337088735e+01 3.7110937823955332e+01 5 0 0
308 444 2 5.2420000000000000e-01 5.7855766434953226e-01 1.1431113855705659e+01 3.6437842468349274e+01 -1 1 0
309 444 2 5.2420000000000000e-01 1.8078279608042602e+00 1.2104455034408380e+01 3.5865650550830708e+01 -1 1 0
307 444 1 -1.0484000000000000e+00 1.4838272576655664e+00 1.1659600382383395e+01 3.6648824315771989e+01 -1 1 0
453 444 2 5.2420000000000000e-01 5.1676988204695000e+00 1.0609913761304805e+01 3.5650616865560956e+01 -4 -1 0
370 444 1 -1.0484000000000000e+00 3.8567798210616320e+00 1.0701317514528620e+01 3.7285949571608484e+01 5 0 0
371 444 2 5.2420000000000000e-01 3.6584186407211003e+00 9.7963929561796643e+00 3.7526773895973079e+01 5 0 0
1554 444 2 5.2420000000000000e-01 4.7875183269024646e+00 1.3295147091718578e+01 8.1636229399648155e+00 4 4 0
1441 444 1 -1.0484000000000000e+00 6.6781414260077039e+00 1.3551740675672830e+01 8.1908276693094137e+00 -1 -2 0
1442 444 2 5.2420000000000000e-01 6.9675793275241231e+00 1.4247090542169323e+01 8.7815444253012469e+00 -1 -2 0
1552 444 1 -1.0484000000000000e+00 3.8776199168269407e+00 1.3230043427126430e+01 8.4535857938642334e+00 4 4 0
1553 444 2 5.2420000000000000e-01 3.7449223126958162e+00 1.4002639732130095e+01 9.0028746224923033e+00 4 4 0
2293 444 1 -1.0484000000000000e+00 9.2533275612883348e-01 1.7082361290903485e+01 1.7253608118395089e+01 -5 0 0
1955 444 2 5.2420000000000000e-01 2.3595828750825798e+00 1.5342889515363726e+01 9.9087009977166769e+00 8 -11 0
1954 444 1 -1.0484000000000000e+00 3.2780841565147760e+00 1.5593084549245386e+01 1.0008649542513037e+01 8 -11 0
1887 444 2 5.2420000000000000e-01 4.6394176612376992e+00 1.5290876932643959e+01 1.2263976626476476e+01 4 -9 0
2792 444 2 5.2420000000000000e-01 8.3878606489309504e-01 1.3092537045362965e+01 1.2373235337081471e+01 -5 -8 0
1280 444 2 5.2420000000000000e-01 4.8604716844443896e+00 1.4972042189640877e+01 1.7517658083345548e+01 -4 0 0
2421 444 2 5.2420000000000000e-01 2.1071246366019949e+00 1.5632114739678862e+01 1.4466161672149168e+01 4 5 0
2419 444 1 -1.0484000000000000e+00 1.9691886482972782e+00 1.5067575483137038e+01 1.5226754856467551e+01 4 5 0
517 444 1 -1.0484000000000000e+00 4.0050431732810630e+00 1.6454782312172675e+01 1.7237861011558216e+01 7 5 0
2420 444 2 5.2420000000000000e-01 1.3961704448335706e+00 1.4370488681373363e+01 1.4907455564031572e+01 4 5 0
1885 444 1 -1.0484000000000000e+00 5.2063011954153895e+00 1.4805789160247150e+01 1.2863614068339379e+01 4 -9 0
1886 444 2 5.2420000000000000e-01 4.6288758119658793e+00 1.4159238757235379e+01 1.3269550765105421e+01 4 -9 0
459 444 2 5.2420000000000000e-01 6.4688379529751652e+00 1.5111770543163423e+01 1.4321995931907399e+01 7 1 0
2773 444 1 -1.0484000000000000e+00 2.4910209187324261e-01 1.5277457573935326e+01 9.7184979298176657e+00 -12 -2 0
2393 444 2 5.2420000000000000e-01 6.6104391667598961e+00 1.4513447915619073e+01 1.1493034268435188e+01 2 6 0
518 444 2 5.2420000000000000e-01 3.3169435645039060e+00 1.6802124417419940e+01 1.6670318106311743e+01 7 5 0
281 444 2 5.2420000000000000e-01 4.2100844759850764e+00 1.3119841270470442e+01 1.6119271744640617e+01 -7 -5 0
2392 444 1 -1.0484000000000000e+00 7.3238799952423754e+00 1.4595137553287758e+01 1.0860135450671434e+01 2 6 0
2791 444 1 -1.0484000000000000e+00 3.3223326104943544e-02 1.3531669506796037e+01 1.2100355680745846e+01 -5 -8 0
1279 444 1 -1.0484000000000000e+00 5.0573245759370424e+00 1.4049653650635685e+01 1.7680998831298929e+01 -4 0 0
457 444 1 -1.0484000000000000e+00 6.7304499181449859e+00 1.5750332681906055e+01 1.4985343709103628e+01 7 1 0
1956 444 2 5.2420000000000000e-01 3.4218420939700569e+00 1.6254036875818127e+01 9.3313699965958357e+00 8 -11 0
2294 444 2 5.2420000000000000e-01 1.1254187263379949e+00 1.6334167755360955e+01 1.6691109640793904e+01 -5 0 0
1998 444 2 5.2420000000000000e-01 3.0483367132394070e+00 1.3344874320132423e+01 1.7720210538464517e+01 -5 -5 0
458 444 2 5.2420000000000000e-01 6.4021036774849529e+00 1.6586897344791183e+01 1.4655827507716465e+01 7 1 0
2774 444 2 5.2420000000000000e-01 3.6992896456492491e-01 1.4969552398666398e+01 1.0616733787348632e+01 -12 -2 0
1750 444 1 -1.0484000000000000e+00 2.8419116948198431e+00 1.7103066143224737e+01 1.3623997310154019e+01 -4 -1 0
1997 444 2 5.2420000000000000e-01 1.5830783234436034e+00 1.3455275346325957e+01 1.8084525243438900e+01 -5 -5 0
1782 444 2 5.2420000000000000e-01 8.0424816288523590e-02 1.4166446399551456e+01 2.4568852141749232e+01 0 -6 0
519 444 2 5.2420000000000000e-01 3.5493328090403162e+00 1.6203164738769786e+01 1.8041134715692380e+01 7 5 0
1781 444 2 5.2420000000000000e-01 8.5805510788754602e-01 1.2962260771867978e+01 2.5055805758119448e+01 0 -6 0
299 444 2 5.2420000000000000e-01 1.0629143276852460e+00 1.2916665570875052e+01 2.0805782416879392e+01 -7 -4 0
2360 444 2 5.2420000000000000e-01 5.3343254763034420e-01 1.6172789178051630e+01 2.3155747642464597e+01 0 2 0
1111 444 1 -1.0484000000000000e+00 4.9260269065214368e+00 1.6461703058117823e+01 2.1131938103163204e+01 0 0 0
1281 444 2 5.2420000000000000e-01 5.9694333077102559e+00 1.4046677849874941e+01 1.7971310166604717e+01 -4 0 0
298 444 1 -1.0484000000000000e+00 1.7281768192491054e+00 1.3442373188803627e+01 2.1249956328094125e+01 -7 -4 0
642 444 2 5.2420000000000000e-01 6.8556228802208166e+00 1.6155109399630668e+01 2.1042237717080152e+01 -1 0 0
2359 444 1 -1.0484000000000000e+00 1.7876150069245789e-01 1.5294050591573718e+01 2.3020621281663185e+01 0 2 0
300 444 2 5.2420000000000000e-01 1.2497406399628472e+00 1.3901564119137326e+01 2.1940228188798987e+01 -7 -4 0
1753 444 1 -1.0484000000000000e+00 2.6378085652855008e+00 1.5512374062348531e+01 1.9430938697519771e+01 0 6 0
1755 444 2 5.2420000000000000e-01 3.2753612402591505e+00 1.5738025202744536e+01 2.0108316865841726e+01 0 6 0
1754 444 2 5.2420000000000000e-01 2.2670209161431960e+00 1.4678144013338459e+01 1.9718704914279652e+01 0 6 0
2229 444 2 5.2420000000000000e-01 7.0948017100855951e+00 1.5719924562829027e+01 2.6148042470856808e+01 -2 2 0
2227 444 1 -1.0484000000000000e+00 7.0582421861220750e+00 1.6515430907748286e+01 2.5616944424480728e+01 -2 2 0
1780 444 1 -1.0484000000000000e+00 3.9491102551075818e-01 1.3740328230923424e+01 2.5366193816478710e+01 0 -6 0
1996 444 1 -1.0484000000000000e+00 2.3102821655525596e+00 1.2833696312894331e+01 1.8052181570610504e+01 -5 -5 0
2069 444 2 5.2420000000000000e-01 5.5655803028530917e+00 1.5868914721558944e+01 2.4255892694744137e+01 3 -4 0
2290 444 1 -1.0484000000000000e+00 1.7476285788734429e+00 1.6124597518714399e+01 2.6242785356145731e+01 -7 1 0
2291 444 2 5.2420000000000000e-01 1.3785101391008288e+00 1.5289988028769452e+01 2.5953975522091831e+01 -7 1 0
1113 444 2 5.2420000000000000e-01 4.6469983894499043e+00 1.6273954697307285e+01 2.2028111405362999e+01 0 0 0
2068 444 1 -1.0484000000000000e+00 4.8001093304115861e+00 1.5651993668557273e+01 2.3723696924119988e+01 3 -4 0
2070 444 2 5.2420000000000000e-01 4.6408120057323448e+00 1.4724598748665711e+01 2.3899185088464844e+01 3 -4 0
1162 444 1 -1.0484000000000000e+00 4.6165140990915052e+00 1.2840361601006389e+01 2.4460771281767130e+01 1 -4 0
1574 444 2 5.2420000000000000e-01 1.0679871321578962e+00 1.6062111761819576e+01 2.9123740868448969e+01 4 6 0
2764 444 1 -1.0484000000000000e+00 6.5127992298279400e+00 1.3175718167507281e+01 3.0571517449218817e+01 -3 -2 0
2292 444 2 5.2420000000000000e-01 1.2732357108177192e+00 1.6330954251401621e+01 2.7048142991493428e+01 -7 1 0
37 444 1 -1.0484000000000000e+00 2.5421751927451575e+00 1.3262580876480227e+01 2.7833778397095962e+01 -2 7 0
2022 444 2 5.2420000000000000e-01 5.8785004857148611e+00 1.3577737421083219e+01 2.7096893122764694e+01 -5 -6 0
2329 444 1 -1.0484000000000000e+00 5.0518850092477461e+00 1.4767735363664407e+01 3.5436489068712433e+01 6 -4 0
509 444 2 5.2420000000000000e-01 2.7015935842475653e+00 1.3672875874071574e+01 3.3899788490850590e+01 -3 6 0
510 444 2 5.2420000000000000e-01 3.5797906070502403e+00 1.3388780524542190e+01 3.5099770000781398e+01 -3 6 0
1573 444 1 -1.0484000000000000e+00 2.9349611477316601e-01 1.5823468595180689e+01 2.8614383401672477e+01 4 6 0
2439 444 2 5.2420000000000000e-01 2.1923055790654247e+00 1.5607235187350430e+01 3.2719022740134633e+01 5 2 0
2689 444 1 -1.0484000000000000e+00 9.8863821901747606e-01 1.6811124876468313e+01 3.4075093610435452e+01 0 -4 0
38 444 2 5.2420000000000000e-01 1.9938234753445465e+00 1.3907278001875857e+01 2.7386667515246916e+01 -2 7 0
508 444 1 -1.0484000000000000e+00 2.7871797830630967e+00 1.3089834390182629e+01 3.4654089258883310e+01 -3 6 0
2765 444 2 5.2420000000000000e-01 6.5032594477052008e+00 1.3423787580519338e+01 3.1495965077838395e+01 -3 -2 0
877 444 1 -1.0484000000000000e+00 3.6497707191971949e+00 1.3974808049056447e+01 3.0399031011614412e+01 -2 -1 0
2020 444 1 -1.0484000000000000e+00 6.6167882899450934e+00 1.4098939918643930e+01 2.6781438813133711e+01 -5 -6 0
2021 444 2 5.2420000000000000e-01 7.3227050740015232e+00 1.3914802804972300e+01 2.7401123216077870e+01 -5 -6 0
1145 444 2 5.2420000000000000e-01 7.1035382020293858e-01 1.3409148616776216e+01 3.2599213105344639e+01 -4 2 0
2690 444 2 5.2420000000000000e-01 9.3046367982660039e-01 1.6120642127013376e+01 3.4735458537172320e+01 0 -4 0
1234 444 1 -1.0484000000000000e+00 6.5938345745489526e+00 1.4618589136672252e+01 3.3181342547416143e+01 -2 -1 0
1235 444 2 5.2420000000000000e-01 5.8541070093730685e+00 1.4859604207326381e+01 3.3738968753145940e+01 -2 -1 0
879 444 2 5.2420000000000000e-01 4.5860001040438796e+00 1.3780061964736479e+01 3.0441228484208803e+01 -2 -1 0
2437 444 1 -1.0484000000000000e+00 2.1655778146235889e+00 1.4650441554198627e+01 3.2727014299238071e+01 5 2 0
2438 444 2 5.2420000000000000e-01 2.2535337659465879e+00 1.4400213919923081e+01 3.1807295463791540e+01 5 2 0
188 444 2 5.2420000000000000e-01 4.4557328015662465e+00 1.6345142458169921e+01 3.2038307092300670e+01 -10 1 0
878 444 2 5.2420000000000000e-01 3.5016005806179558e+00 1.4245738798904274e+01 2.9493009885936214e+01 -2 -1 0
1236 444 2 5.2420000000000000e-01 7.1402609592990611e+00 1.4061049171190497e+01 3.3735237366085336e+01 -2 -1 0
893 444 2 5.2420000000000000e-01 1.0548576613886242e+00 1.6937694280803061e+01 3.2101060904111570e+01 4 1 0
892 444 1 -1.0484000000000000e+00 1.3559375633831428e+00 1.6971658490765240e+01 3.1193079912105190e+01 4 1 0
1043 444 2 5.2420000000000000e-01 4.6176630558913756e-01 1.3662286832691409e+01 3.6525090317655639e+01 3 6 0
2330 444 2 5.2420000000000000e-01 5.1056322049669074e+00 1.5674227486167112e+01 3.5739169781431279e+01 6 -4 0
2331 444 2 5.2420000000000000e-01 5.6093213587468806e+00 1.4279073068270890e+01 3.6042051800323932e+01 6 -4 0
2400 444 2 5.2420000000000000e-01 3.1901167015266365e+00 1.8480264521825724e+01 8.6404970599701283e+00 -8 2 0
2398 444 1 -1.0484000000000000e+00 3.3460340315648316e+00 1.7594538706211253e+01 8.3127574671629283e+00 -8 2 0
865 444 1 -1.0484000000000000e+00 6.6075186346602637e+00 2.0661076199125233e+01 8.6692642590570586e+00 0 -7 0
2399 444 2 5.2420000000000000e-01 3.0109306751510032e+00 1.7607932725124236e+01 7.4162317059246723e+00 -8 2 0
866 444 2 5.2420000000000000e-01 6.4760428093202353e+00 2.0792817985682628e+01 7.7303339264170221e+00 0 -7 0
830 444 2 5.2420000000000000e-01 1.3096414514631838e+00 1.9647233523190263e+01 1.5574518105180831e+01 1 -3 0
2258 444 2 5.2420000000000000e-01 1.9041597773593948e+00 2.0431287047480897e+01 9.2231415391679388e+00 11 7 0
831 444 2 5.2420000000000000e-01 1.7339534053501191e+00 1.9846803489683907e+01 1.7013971945084101e+01 1 -3 0
2257 444 1 -1.0484000000000000e+00 2.6042483484621388e+00 1.9890103236610749e+01 9.5881458909868833e+00 11 7 0
964 444 1 -1.0484000000000000e+00 1.1068747657230098e+00 1.8604908507360793e+01 1.1718104910391364e+01 -1 -1 0
1751 444 2 5.2420000000000000e-01 2.4027233940237025e+00 1.7653358454452462e+01 1.2975518690762314e+01 -4 -1 0
2462 444 2 5.2420000000000000e-01 3.6127399867924224e+00 2.0594275979273490e+01 1.3779966932196741e+01 3 8 0
2259 444 2 5.2420000000000000e-01 2.2130379835295431e+00 1.9479696335777557e+01 1.0359347915498642e+01 11 7 0
2463 444 2 5.2420000000000000e-01 3.1497287792086186e+00 1.9718881346201126e+01 1.4925043690567994e+01 3 8 0
2808 444 2 5.2420000000000000e-01 4.9993492763300464e+00 1.7895635437414796e+01 1.0165561428012495e+01 -7 -4 0
2461 444 1 -1.0484000000000000e+00 3.9341492705571781e+00 2.0110228853782132e+01 1.4540642249335953e+01 3 8 0
924 444 2 5.2420000000000000e-01 5.3601054573442921e+00 1.8267102220791063e+01 1.2892934925876181e+01 3 3 0
2806 444 1 -1.0484000000000000e+00 5.3970607493979692e+00 1.8215261017494910e+01 1.0975436339921027e+01 -7 -4 0
922 444 1 -1.0484000000000000e+00 5.6657718142017126e+00 1.8081981506892586e+01 1.3780927194680737e+01 3 3 0
923 444 2 5.2420000000000000e-01 5.1549860986010367e+00 1.8669434991981234e+01 1.4337908955902837e+01 3 3 0
2807 444 2 5.2420000000000000e-01 5.4093026794932388e+00 1.9167340928993340e+01 1.0877319221748957e+01 -7 -4 0
2295 444 2 5.2420000000000000e-01 1.4061546501517503e+00 1.7811886493768302e+01 1.6862665074455094e+01 -5 0 0
896 444 2 5.2420000000000000e-01 3.9340953548603226e+00 1.9739975579914592e+01 1.6922075376478332e+01 5 -1 0
1928 444 2 5.2420000000000000e-01 5.3559649461553898e+00 2.1021759331449523e+01 9.8089344179388824e+00 2 6 0
897 444 2 5.2420000000000000e-01 5.3462543121261064e+00 1.9937902632319275e+01 1.7430531131843729e+01 5 -1 0
895 444 1 -1.0484000000000000e+00 4.4324422338494873e+00 2.0131893753684601e+01 1.7639210351769282e+01 5 -1 0
763 444 1 -1.0484000000000000e+00 8.8901020009641826e-02 1.9986862979203224e+01 1.3952041046589001e+01 5 5 0
966 444 2 5.2420000000000000e-01 4.6955260451343844e-01 1.8908578686412028e+01 1.2364508569448054e+01 -1 -1 0
2907 444 2 5.2420000000000000e-01 7.0951670991479396e+00 1.7606999996302672e+01 1.1267397506319600e+01 4 -8 0
2036 444 2 5.2420000000000000e-01 5.5225783800200254e+00 1.7454302821439487e+01 1.7679540273377018e+01 0 3 0
1929 444 2 5.2420000000000000e-01 3.9931776253524927e+00 2.0586512262407119e+01 1.0304177793930226e+01 2 6 0
1927 444 1 -1.0484000000000000e+00 4.8114580376194294e+00 2.0988745934991819e+01 1.0595480254431354e+01 2 6 0
1752 444 2 5.2420000000000000e-01 3.7582618893776494e+00 1.7377701040016941e+01 1.3590680640169181e+01 -4 -1 0
965 444 2 5.2420000000000000e-01 5.8310468885290923e-01 1.8143687102717678e+01 1.1062992926719298e+01 -1 -1 0
829 444 1 -1.0484000000000000e+00 1.9534806503094249e+00 1.9357739579871733e+01 1.6220967262195224e+01 1 -3 0
1329 444 2 5.2420000000000000e-01 6.9737480010133881e+00 1.9219539403135474e+01 1.3830049850976811e+01 -3 -1 0
2221 444 1 -1.0484000000000000e+00 3.1382365740102198e+00 1.7834600661303977e+01 2.4659177295827519e+01 2 4 0
2037 444 2 5.2420000000000000e-01 6.4030796425797520e+00 1.8090076860893035e+01 1.8734246643229199e+01 0 3 0
1953 444 2 5.2420000000000000e-01 1.6782681331184020e+00 1.7207422276763776e+01 1.9633133149180210e+01 3 0 0
2367 444 2 5.2420000000000000e-01 1.2124883673964244e+00 1.7737152125099300e+01 2.1904006636448553e+01 1 4 0
2366 444 2 5.2420000000000000e-01 1.9708294968298101e+00 1.7790303042379730e+01 2.3213201765871581e+01 1 4 0
1951 444 1 -1.0484000000000000e+00 1.6138131976768815e+00 1.8011838124864976e+01 2.0147908133246300e+01 3 0 0
1952 444 2 5.2420000000000000e-01 1.5193915168876262e+00 1.8706744400547048e+01 1.9496431488414071e+01 3 0 0
1668 444 2 5.2420000000000000e-01 1.4138598746417343e+00 1.9850232114621736e+01 2.6375485012931534e+01 3 -1 0
1112 444 2 5.2420000000000000e-01 4.6494215010597486e+00 1.7365173953483165e+01 2.0978763554706962e+01 0 0 0
2715 444 2 5.2420000000000000e-01 4.7795147747828448e+00 1.9258300640490567e+01 2.4107503577053293e+01 8 -2 0
2713 444 1 -1.0484000000000000e+00 5.6663093940112086e+00 1.9422010296540975e+01 2.4428480698036115e+01 8 -2 0
2208 444 2 5.2420000000000000e-01 5.8200702725035578e+00 1.9306615185965505e+01 2.2464201109472224e+01 12 1 0
2714 444 2 5.2420000000000000e-01 5.5668000094573884e+00 2.0141180038153610e+01 2.5052279352136008e+01 8 -2 0
2206 444 1 -1.0484000000000000e+00 5.3154911490828214e+00 1.9279840947636782e+01 2.1651234146314327e+01 12 1 0
2902 444 1 -1.0484000000000000e+00 1.3332122784471039e+00 2.0595038055710340e+01 1.8538423232057731e+01 2 0 0
2207 444 2 5.2420000000000000e-01 5.6926052702297252e+00 1.9974782683402605e+01 2.1111721593020643e+01 12 1 0
2365 444 1 -1.0484000000000000e+00 1.0928826835973511e+00 1.7880934935007520e+01 2.2842758602387242e+01 1 4 0
1362 444 2 5.2420000000000000e-01 5.2017453118320907e+00 1.8675484793651716e+01 2.6182426305265260e+01 8 4 0
2035 444 1 -1.0484000000000000e+00 6.3206194900618025e+00 1.7971605034465906e+01 1.7787992398424180e+01 0 3 0
1842 444 2 5.2420000000000000e-01 3.9259141185770949e+00 2.1138504111273352e+01 1.9279450064008842e+01 5 -1 0
2903 444 2 5.2420000000000000e-01 4.8448146549471960e-01 2.0445558118668938e+01 1.8955010257063805e+01 2 0 0
2545 444 1 -1.0484000000000000e+00 4.8562881567955776e+00 2.1167838006580368e+01 2.6198798556223473e+01 6 -2 0
2222 444 2 5.2420000000000000e-01 2.5521980151361827e+00 1.7423156861562735e+01 2.5294397547454256e+01 2 4 0
2581 444 1 -1.0484000000000000e+00 6.6175758119741204e+00 2.1282349713487051e+01 2.0572131645612256e+01 -3 -4 0
2228 444 2 5.2420000000000000e-01 6.5770196988278551e+00 1.7142499882350510e+01 2.6156797627084856e+01 -2 2 0
2223 444 2 5.2420000000000000e-01 3.7757250069279427e+00 1.7153583751776392e+01 2.4444569496063327e+01 2 4 0
792 444 2 5.2420000000000000e-01 1.4567190009355357e-02 1.9783585563120866e+01 2.3067405064959758e+01 2 2 0
1106 444 2 5.2420000000000000e-01 6.9304859997111690e+00 1.7666402942308849e+01 2.9186249068065823e+01 -5 -16 0
2758 444 1 -1.0484000000000000e+00 1.9307280540046969e+00 2.1049450714917839e+01 2.9201169002216616e+01 3 -5 0
1643 444 2 5.2420000000000000e-01 9.8664844594119150e-01 2.0632714568591279e+01 3.4094240109610126e+01 5 -7 0
810 444 2 5.2420000000000000e-01 4.0418550258513708e+00 1.7905359897646679e+01 2.7826502400317231e+01 3 3 0
1025 444 2 5.2420000000000000e-01 6.9929293232110377e+00 1.7595356499135573e+01 3.5375232391536166e+01 -13 5 0
502 444 1 -1.0484000000000000e+00 4.5346224389603140e+00 2.0962479412167820e+01 3.4551275953492421e+01 -1 10 0
2691 444 2 5.2420000000000000e-01 1.4892184705016969e+00 1.7507772557960482e+01 3.4499750671462564e+01 0 -4 0
1561 444 1 -1.0484000000000000e+00 4.6654831026725940e+00 1.9310470929810748e+01 3.0354553150988121e+01 3 -1 0
1667 444 2 5.2420000000000000e-01 2.7000301251920089e-01 1.9474882790739674e+01 2.7293417848831648e+01 3 -1 0
1024 444 1 -1.0484000000000000e+00 6.0511801279103477e+00 1.7472173312099187e+01 3.5494255384319302e+01 -13 5 0
2604 444 2 5.2420000000000000e-01 3.6855322327413917e+00 1.9346346634469093e+01 3.4496848857870290e+01 3 -1 0
1361 444 2 5.2420000000000000e-01 6.2467443413573944e+00 1.8880829251044776e+01 2.7258394066311691e+01 8 4 0
1360 444 1 -1.0484000000000000e+00 5.6081948153413723e+00 1.8245400256007990e+01 2.6934794638847453e+01 8 4 0
1026 444 2 5.2420000000000000e-01 5.6768045723807328e+00 1.8343407242634669e+01 3.5363770678236413e+01 -13 5 0
187 444 1 -1.0484000000000000e+00 4.0598521094346331e+00 1.7195401742552320e+01 3.2229538710108862e+01 -10 1 0
1644 444 2 5.2420000000000000e-01 1.5856137070295535e+00 1.9395066860239172e+01 3.4727773460387098e+01 5 -7 0
1562 444 2 5.2420000000000000e-01 4.1424708903754750e+00 1.8867949604943053e+01 2.9686073155550446e+01 3 -1 0
189 444 2 5.2420000000000000e-01 4.6233141768416921e+00 1.7828107399714600e+01 3.1784087925212045e+01 -10 1 0
2759 444 2 5.2420000000000000e-01 1.9060350835969937e+00 2.0333964934012236e+01 2.8565792955602010e+01 3 -5 0
1563 444 2 5.2420000000000000e-01 4.8862235681122019e+00 2.0156647109126162e+01 2.9965333660192876e+01 3 -1 0
2602 444 1 -1.0484000000000000e+00 3.1633265523571650e+00 1.8545473466917802e+01 3.4543077031984012e+01 3 -1 0
504 444 2 5.2420000000000000e-01 4.9974200234598918e+00 2.1343630966280667e+01 3.3805103194458994e+01 -1 10 0
2603 444 2 5.2420000000000000e-01 3.5962646920785279e+00 1.7941520377028187e+01 3.3939721034094674e+01 3 -1 0
1666 444 1 -1.0484000000000000e+00 1.1698532488408675e+00 1.9237635670411688e+01 2.7069328243970205e+01 3 -1 0
809 444 2 5.2420000000000000e-01 2.6169410649632532e+00 1.8356584604409765e+01 2.8067152609943985e+01 3 3 0
808 444 1 -1.0484000000000000e+00 3.4400171994464745e+00 1.8174320068387747e+01 2.8520537139532404e+01 3 3 0
2547 444 2 5.2420000000000000e-01 5.0768200249137942e+00 2.1085516587027811e+01 2.7126603065005746e+01 6 -2 0
1105 444 1 -1.0484000000000000e+00 7.2481965620525495e+00 1.7997518585509727e+01 3.0026281560501786e+01 -5 -16 0
1107 444 2 5.2420000000000000e-01 6.5088590385292138e+00 1.8487451175551534e+01 3.0386251502398999e+01 -5 -16 0
1642 444 1 -1.0484000000000000e+00 8.3101951700428611e-01 1.9981787173861957e+01 3.4778568739270952e+01 5 -7 0
894 444 2 5.2420000000000000e-01 2.1025165895529514e+00 1.7570460726960615e+01 3.1210043056477442e+01 4 1 0
1981 444 1 -1.0484000000000000e+00 2.8497078702607319e+00 2.4582057627839895e+01 8.4705031574322529e+00 3 2 0
1983 444 2 5.2420000000000000e-01 3.5828942785484212e+00 2.4990114655489705e+01 8.0098956065556308e+00 3 2 0
1070 444 2 5.2420000000000000e-01 6.2935186439111557e-01 2.5558899459188918e+01 8.2429408799790380e+00 -8 3 0
2390 444 2 5.2420000000000000e-01 3.0003017684308464e+00 2.2533291055343565e+01 1.2468230585848151e+01 2 2 0
2389 444 1 -1.0484000000000000e+00 2.4333318882100636e+00 2.1803264489762878e+01 1.2716904964468000e+01 2 2 0
2110 444 1 -1.0484000000000000e+00 4.4025614746516926e+00 2.2764048307872269e+01 1.6530287481724649e+01 -3 9 0
2835 444 2 5.2420000000000000e-01 5.3799730664725205e+00 2.3433486196095032e+01 1.3351284969157852e+01 -6 -5 0
2391 444 2 5.2420000000000000e-01 1.9587371897295438e+00 2.2119109330863818e+01 1.3485822374350828e+01 2 2 0
2111 444 2 5.2420000000000000e-01 4.5002938908145937e+00 2.3024812125501473e+01 1.5614491040079422e+01 -3 9 0
2321 444 2 5.2420000000000000e-01 4.7629464331692395e+00 2.2549801355421636e+01 1.1413375634021799e+01 -7 -2 0
2112 444 2 5.2420000000000000e-01 4.3270484968475538e+00 2.1810266107593378e+01 1.6501486187900131e+01 -3 9 0
2833 444 1 -1.0484000000000000e+00 5.6383543195164991e+00 2.3776099768852564e+01 1.4206905750923909e+01 -6 -5 0
2834 444 2 5.2420000000000000e-01 5.9091151473751262e+00 2.4677521417045607e+01 1.4032666100415792e+01 -6 -5 0
2320 444 1 -1.0484000000000000e+00 4.5687789222243600e+00 2.3452697548667079e+01 1.1664989164811086e+01 -7 -2 0
2322 444 2 5.2420000000000000e-01 4.7826588427023387e+00 2.3969571288000765e+01 1.0888246322048710e+01 -7 -2 0
144 444 2 5.2420000000000000e-01 1.1295716427302378e+00 2.3421731819204528e+01 1.6436772196475168e+01 6 0 0
2054 444 2 5.2420000000000000e-01 3.2755520809378660e+00 2.5028165485151629e+01 1.1978299180374192e+01 2 -3 0
143 444 2 5.2420000000000000e-01 2.5675026759444597e+00 2.2987109388797247e+01 1.6624801173352498e+01 6 0 0
2053 444 1 -1.0484000000000000e+00 2.5690423346522731e+00 2.5605865908171868e+01 1.2266982589316912e+01 2 -3 0
754 444 1 -1.0484000000000000e+00 5.6595551660488255e+00 2.4809357991468183e+01 9.3244325701302859e+00 4 8 0
142 444 1 -1.0484000000000000e+00 1.6785603239101556e+00 2.2817690832528452e+01 1.6936750208198610e+01 6 0 0
1963 444 1 -1.0484000000000000e+00 2.5781327508719363e+00 2.5427277392840974e+01 1.5126667070240375e+01 4 0 0
756 444 2 5.2420000000000000e-01 6.4925978109491291e+00 2.4477227779560277e+01 9.6590411267114948e+00 4 8 0
2672 444 2 5.2420000000000000e-01 5.7730797358631647e-01 2.1872536847660893e+01 1.1882941971334418e+01 -3 3 0
1965 444 2 5.2420000000000000e-01 1.6708654281565158e+00 2.5222827626197216e+01 1.5353159475870706e+01 4 0 0
1982 444 2 5.2420000000000000e-01 3.2493585340680502e+00 2.3878913451069174e+01 8.9824599720055165e+00 3 2 0
2397 444 2 5.2420000000000000e-01 7.1792684247432783e+00 2.2845504915607549e+01 1.4740086602473696e+01 5 -6 0
2055 444 2 5.2420000000000000e-01 2.6301858274484844e+00 2.5600940425075009e+01 1.3222215250578490e+01 2 -3 0
2999 444 2 5.2420000000000000e-01 2.3154441981188607e+00 2.5120968453592717e+01 1.9445680925282606e+01 -5 2 0
2500 444 1 -1.0484000000000000e+00 2.4684727892544078e+00 2.5050490160217496e+01 2.4078504948564518e+01 -8 -1 0
1108 444 1 -1.0484000000000000e+00 1.1925985426702392e+00 2.2008171572572888e+01 2.4697221867189825e+01 0 3 0
1094 444 2 5.2420000000000000e-01 9.2817506797420612e-01 2.5488028932021599e+01 2.1495454095602220e+01 2 -4 0
1768 444 1 -1.0484000000000000e+00 1.0352934896820915e-01 2.3366262234515762e+01 2.1710725782667119e+01 8 -2 0
1840 444 1 -1.0484000000000000e+00 4.0445736954183058e+00 2.1872823355177548e+01 1.9881885266111482e+01 5 -1 0
1508 444 2 5.2420000000000000e-01 5.1089602548708140e+00 2.4357212441197898e+01 2.5034464693961873e+01 -2 3 0
2582 444 2 5.2420000000000000e-01 6.9337366710532216e+00 2.2160166422518490e+01 2.0358327575218155e+01 -3 -4 0
528 444 2 5.2420000000000000e-01 1.8442525212628753e+00 2.3346753843451634e+01 1.8575302353962929e+01 3 -2 0
526 444 1 -1.0484000000000000e+00 1.9684906460541649e+00 2.3452970567083607e+01 1.9518443338088463e+01 3 -2 0
996 444 2 5.2420000000000000e-01 5.8486492451424370e+00 2.3499327858657736e+01 1.8037016523597984e+01 8 -2 0
1841 444 2 5.2420000000000000e-01 4.9626178226304773e+00 2.1819363492110430e+01 2.0147535044298660e+01 5 -1 0
1109 444 2 5.2420000000000000e-01 6.1538007397223038e-01 2.1508965162598905e+01 2.4119428788273737e+01 0 3 0
994 444 1 -1.0484000000000000e+00 6.4950707544977240e+00 2.4008681865684689e+01 1.8525822026496581e+01 8 -2 0
1698 444 2 5.2420000000000000e-01 3.5275644633168040e+00 2.2635599971312551e+01 2.2100307377669111e+01 -6 -2 0
2502 444 2 5.2420000000000000e-01 2.9619866681013773e+00 2.4295747367086339e+01 2.3757506500108200e+01 -8 -1 0
527 444 2 5.2420000000000000e-01 2.6839162805156307e+00 2.2855092462656916e+01 1.9735099429584800e+01 3 -2 0
1696 444 1 -1.0484000000000000e+00 2.8380590393454299e+00 2.2916691579405807e+01 2.2701807209616405e+01 -6 -2 0
2546 444 2 5.2420000000000000e-01 4.7385563296319475e+00 2.2107956911393423e+01 2.6062605452156490e+01 6 -2 0
1697 444 2 5.2420000000000000e-01 2.0893737727913866e+00 2.3106968980520033e+01 2.2136565978732108e+01 -6 -2 0
1509 444 2 5.2420000000000000e-01 4.2703222002309005e+00 2.4768687646407283e+01 2.6225795727752185e+01 -2 3 0
446 444 2 5.2420000000000000e-01 9.5525737410092704e-01 2.3048625786134572e+01 2.5998478645644727e+01 -5 9 0
1770 444 2 5.2420000000000000e-01 1.6228204306251937e-01 2.3325520749044493e+01 2.0756199480107025e+01 8 -2 0
1110 444 2 5.2420000000000000e-01 2.0162867742203323e+00 2.2074981468805863e+01 2.4214203207041322e+01 0 3 0
2501 444 2 5.2420000000000000e-01 1.7403790111555932e+00 2.4669869214193969e+01 2.4569666066074632e+01 -8 -1 0
995 444 2 5.2420000000000000e-01 6.4490166182956594e+00 2.4885009705266445e+01 1.8143511612868615e+01 8 -2 0
1507 444 1 -1.0484000000000000e+00 5.0694365639220083e+00 2.4297963450750785e+01 2.5989011348098916e+01 -2 3 0
2904 444 2 5.2420000000000000e-01 1.2569733068953257e+00 2.1463548586966631e+01 1.8143315797034727e+01 2 0 0
2760 444 2 5.2420000000000000e-01 1.0853125802170847e+00 2.1487355549428099e+01 2.9102449944555737e+01 3 -5 0
447 444 2 5.2420000000000000e-01 3.9067116605712704e-01 2.3022537492726336e+01 2.7402920567347579e+01 -5 9 0
445 444 1 -1.0484000000000000e+00 7.6350284255807410e-01 2.3612505547117053e+01 2.6747812868374282e+01 -5 9 0
1216 444 1 -1.0484000000000000e+00 5.7235410745160280e+00 2.1571633542565070e+01 2.9540982814220282e+01 -8 3 0
412 444 1 -1.0484000000000000e+00 6.5929494420489396e+00 2.5182287906171869e+01 3.2180647194510136e+01 5 3 0
1255 444 1 -1.0484000000000000e+00 1.6603166382530006e+00 2.5031415315273371e+01 2.9835595632030302e+01 6 2 0
2078 444 2 5.2420000000000000e-01 4.7494366839425721e+00 2.2546300601074208e+01 3.1940045871932938e+01 -9 3 0
2277 444 2 5.2420000000000000e-01 5.6977090284572061e+00 2.4966672177240714e+01 2.7561200977568390e+01 4 4 0
1256 444 2 5.2420000000000000e-01 1.0700416730875451e+00 2.5011469794553502e+01 3.0588862901867486e+01 6 2 0
1136 444 2 5.2420000000000000e-01 2.8559073041604710e-01 2.2633899900275196e+01 3.2256573582614806e+01 -14 -8 0
1218 444 2 5.2420000000000000e-01 5.0751488901868926e+00 2.2272041738567278e+01 2.9468536224615125e+01 -8 3 0
585 444 2 5.2420000000000000e-01 4.8050363617022723e-01 2.5074390769419679e+01 3.2511925173719987e+01 10 -8 0
2286 444 2 5.2420000000000000e-01 2.2163490418098259e+00 2.5317179473003893e+01 2.7009803194195403e+01 2 -2 0
413 444 2 5.2420000000000000e-01 6.0488180028123377e+00 2.4405964178633564e+01 3.2048454034615382e+01 5 3 0
1135 444 1 -1.0484000000000000e+00 4.6487977422066290e-01 2.1693673633801449e+01 3.2264528545363490e+01 -14 -8 0
2077 444 1 -1.0484000000000000e+00 5.5332903534570521e+00 2.2274339398429184e+01 3.2417374591900696e+01 -9 3 0
2079 444 2 5.2420000000000000e-01 6.0475935936793457e+00 2.1785030159204684e+01 3.1775268208774019e+01 -9 3 0
503 444 2 5.2420000000000000e-01 4.3896118002754969e+00 2.1698874382658147e+01 3.5145351896648684e+01 -1 10 0
1217 444 2 5.2420000000000000e-01 6.3716044200757107e+00 2.1773794772859080e+01 2.8866166298437363e+01 -8 3 0
1257 444 2 5.2420000000000000e-01 1.1830506667973613e+00 2.4572268797105721e+01 2.9144485018077887e+01 6 2 0
2275 444 1 -1.0484000000000000e+00 6.0909177327545123e+00 2.5577960672554312e+01 2.8184053465323014e+01 4 4 0
1398 444 2 5.2420000000000000e-01 3.0625128763484017e+00 2.3757028839819096e+01 3.0419916034151928e+01 -12 2 0
1397 444 2 5.2420000000000000e-01 3.0696319133644221e+00 2.2271911871728832e+01 3.0126193085669129e+01 -12 2 0
1396 444 1 -1.0484000000000000e+00 3.6271921318232248e+00 2.2984364437304805e+01 3.0438876901264972e+01 -12 2 0
414 444 2 5.2420000000000000e-01 7.2273548699236763e+00 2.5155497812342027e+01 3.1464375324021422e+01 5 3 0
1137 444 2 5.2420000000000000e-01 8.7931856356641058e-01 2.1521229712265491e+01 3.1419108101342179e+01 -14 -8 0
2894 444 2 5.2420000000000000e-01 2.4584352463541990e+00 2.9201203502123136e+01 8.7819427761735245e+00 -2 4 0
948 444 2 5.2420000000000000e-01 5.0643174634836692e+00 2.8087144186227729e+01 8.7577384355622740e+00 4 -4 0
1687 444 1 -1.0484000000000000e+00 7.7571573061832844e-01 2.8404099629775370e+01 9.4070722251235264e+00 -3 3 0
1689 444 2 5.2420000000000000e-01 2.9484540425432149e-01 2.7663715206831260e+01 9.0371703630881584e+00 -3 3 0
2893 444 1 -1.0484000000000000e+00 3.3090209370528547e+00 2.9542095285035380e+01 9.0585813442864183e+00 -2 4 0
1688 444 2 5.2420000000000000e-01 8.7351754216241240e-01 2.8187582814549067e+01 1.0334319792657130e+01 -3 3 0
151 444 1 -1.0484000000000000e+00 3.4655379569538445e+00 2.9534098459833800e+01 1.6501186800372171e+01 10 -2 0
2142 444 2 5.2420000000000000e-01 6.8266335294320237e+00 2.6401832222479431e+01 1.5146015406589282e+01 -5 -4 0
1240 444 1 -1.0484000000000000e+00 7.1122721958948942e-01 2.8584720871468264e+01 1.2566882066774308e+01 1 1 0
1879 444 1 -1.0484000000000000e+00 6.0073060168201256e-02 2.6073502010889460e+01 1.1379715769878855e+01 -6 5 0
2568 444 2 5.2420000000000000e-01 3.9829522966867166e+00 2.7762780665175516e+01 1.6930186777554610e+01 -3 -3 0
2141 444 2 5.2420000000000000e-01 6.3132134126413906e+00 2.7048533831402185e+01 1.3877129178829422e+01 -5 -4 0
124 444 1 -1.0484000000000000e+00 3.3679883812293547e+00 2.8089950258933762e+01 1.1516998764548752e+01 4 -4 0
125 444 2 5.2420000000000000e-01 3.1423558862375969e+00 2.7191794519937499e+01 1.1759154718726876e+01 4 -4 0
794 444 2 5.2420000000000000e-01 5.5057787390031194e+00 2.9030729252060841e+01 1.4328007315074430e+01 0 1 0
793 444 1 -1.0484000000000000e+00 5.4892031722723349e+00 2.8495776875696382e+01 1.3534418551483832e+01 0 1 0
126 444 2 5.2420000000000000e-01 4.0303130485424852e+00 2.8351756400468989e+01 1.2156542941609271e+01 4 -4 0
795 444 2 5.2420000000000000e-01 6.0740617943568154e+00 2.8949043909501047e+01 1.2927194259786130e+01 0 1 0
2895 444 2 5.2420000000000000e-01 3.4526923751606593e+00 2.9156232137492381e+01 9.9226996032573549e+00 -2 4 0
2140 444 1 -1.0484000000000000e+00 6.7694212826378788e+00 2.6271238700056795e+01 1.4199493343180286e+01 -5 -4 0
1241 444 2 5.2420000000000000e-01 1.6139945383684826e+00 2.8307047871946818e+01 1.2411506922308840e+01 1 1 0
2566 444 1 -1.0484000000000000e+00 4.1083617409674114e+00 2.6815623125883292e+01 1.6988472500787580e+01 -3 -3 0
62 444 2 5.2420000000000000e-01 6.4308827060340468e+00 2.9322086586087806e+01 1.6538774611042008e+01 -7 5 0
947 444 2 5.2420000000000000e-01 6.4008836189805169e+00 2.8084884821311626e+01 9.4687107084561912e+00 4 -4 0
946 444 1 -1.0484000000000000e+00 5.7918378445518641e+00 2.7514227860514790e+01 9.0000462167486219e+00 4 -4 0
1242 444 2 5.2420000000000000e-01 7.3209773306594672e-01 2.9536353447119829e+01 1.2465924541716856e+01 1 1 0
1809 444 2 5.2420000000000000e-01 5.7550920120656874e+00 2.6460369574220870e+01 1.6886557426450217e+01 -5 -4 0
972 444 2 5.2420000000000000e-01 3.7456778766531966e-02 2.9103933321428737e+01 1.6500643691457515e+01 9 -3 0
755 444 2 5.2420000000000000e-01 5.7344318365604270e+00 2.5760936085666394e+01 9.3960299326477621e+00 4 8 0
61 444 1 -1.0484000000000000e+00 6.4127826351692088e+00 2.9889852800124743e+01 1.5768355237317550e+01 -7 5 0
2567 444 2 5.2420000000000000e-01 3.4743582871860039e+00 2.6529614040804898e+01 1.7646097312671699e+01 -3 -3 0
1807 444 1 -1.0484000000000000e+00 6.6438072232566032e+00 2.6452018138583139e+01 1.7242011327549857e+01 -5 -4 0
153 444 2 5.2420000000000000e-01 2.6126448749780633e+00 2.9871583734575090e+01 1.6227491771825139e+01 10 -2 0
1880 444 2 5.2420000000000000e-01 9.5050009435973892e-01 2.5772833494792781e+01 1.1561292273228608e+01 -6 5 0
1964 444 2 5.2420000000000000e-01 2.9466127629822267e+00 2.5801978481273665e+01 1.5926700750865761e+01 4 0 0
2370 444 2 5.2420000000000000e-01 6.7829917828106883e+00 2.8941143382202018e+01 2.3362911543565943e+01 7 -6 0
1808 444 2 5.2420000000000000e-01 6.5645954786466660e+00 2.6876474349436595e+01 1.8096291347315692e+01 -5 -4 0
456 444 2 5.2420000000000000e-01 2.0767292322227955e+00 2.9794622922584214e+01 2.0642327583121780e+01 -6 9 0
2004 444 2 5.2420000000000000e-01 2.3909666715615066e+00 2.8494439322603728e+01 2.3901399356346751e+01 3 -1 0
1502 444 2 5.2420000000000000e-01 7.1780972668753904e+00 2.8789227283953132e+01 1.9873695976918174e+01 2 6 0
3000 444 2 5.2420000000000000e-01 3.0574848940508925e+00 2.6301895987609456e+01 2.0034477196729036e+01 -5 2 0
860 444 2 5.2420000000000000e-01 4.0173685301760216e+00 2.7762581368330135e+01 2.4512214646371294e+01 -6 2 0
2002 444 1 -1.0484000000000000e+00 2.7786791750167730e+00 2.9092042443039833e+01 2.4540759668485386e+01 3 -1 0
1095 444 2 5.2420000000000000e-01 1.8611893004157463e+00 2.5913229448565517e+01 2.2609269644152857e+01 2 -4 0
2926 444 1 -1.0484000000000000e+00 4.0918295081011413e+00 2.7448369234493210e+01 2.1520207367729164e+01 4 11 0
2928 444 2 5.2420000000000000e-01 4.5681663019467207e+00 2.7237451774413213e+01 2.2323232584736484e+01 4 11 0
2927 444 2 5.2420000000000000e-01 3.8366664022212116e+00 2.8364822885659361e+01 2.1626211606758691e+01 4 11 0
2981 444 2 5.2420000000000000e-01 9.4909085534828486e-01 2.7821148091394722e+01 2.0939629795780316e+01 5 3 0
1093 444 1 -1.0484000000000000e+00 1.3927566035475187e+00 2.6248516511460608e+01 2.1844817952783018e+01 2 -4 0
2980 444 1 -1.0484000000000000e+00 6.0705255455150731e-01 2.8610762809571934e+01 2.0520403413491508e+01 5 3 0
859 444 1 -1.0484000000000000e+00 4.4338229055982836e+00 2.6906569938312270e+01 2.4411997779148834e+01 -6 2 0
2003 444 2 5.2420000000000000e-01 2.2730887754661877e+00 2.9899910092116261e+01 2.4451537811455804e+01 3 -1 0
357 444 2 5.2420000000000000e-01 7.7562456904524157e-01 2.6302140931175906e+01 1.8752040403008060e+01 0 -8 0
2998 444 1 -1.0484000000000000e+00 2.5977436195639392e+00 2.6013527719735450e+01 1.9245989014574565e+01 -5 2 0
2440 444 1 -1.0484000000000000e+00 7.3372324849841046e+00 2.6934936337067796e+01 2.6161827815944257e+01 -2 0 0
1503 444 2 5.2420000000000000e-01 6.0139982050979537e+00 2.7898800567351032e+01 2.0253049699073237e+01 2 6 0
1501 444 1 -1.0484000000000000e+00 6.5504360868641633e+00 2.8166557391629727e+01 1.9506877418232865e+01 2 6 0
861 444 2 5.2420000000000000e-01 3.7039977338726504e+00 2.6293189452358522e+01 2.4326250399235779e+01 -6 2 0
2441 444 2 5.2420000000000000e-01 6.5002933798082232e+00 2.7003723755570981e+01 2.5702444349671666e+01 -2 0 0
355 444 1 -1.0484000000000000e+00 3.0072706313121443e-02 2.6151773711325593e+01 1.8170856344978926e+01 0 -8 0
2368 444 1 -1.0484000000000000e+00 6.5155681928608749e+00 2.9850290507128033e+01 2.3497700299440254e+01 7 -6 0
687 444 2 5.2420000000000000e-01 1.8567014886046467e+00 2.8677860662661480e+01 2.7271686409903051e+01 0 4 0
105 444 2 5.2420000000000000e-01 4.8246370041805484e+00 2.9359768125933474e+01 2.8162238618317119e+01 4 -6 0
871 444 1 -1.0484000000000000e+00 5.3889988029972820e+00 2.9537616819016488e+01 3.3171928378660063e+01 4 2 0
2550 444 2 5.2420000000000000e-01 1.9688861387277268e-01 2.8275025489359770e+01 3.0235260139106430e+01 -2 1 0
103 444 1 -1.0484000000000000e+00 3.9554069581074045e+00 2.9284278506671679e+01 2.8555904027236139e+01 4 -6 0
2285 444 2 5.2420000000000000e-01 2.7359061615846669e+00 2.6738648618989028e+01 2.6972636372291394e+01 2 -2 0
1516 444 1 -1.0484000000000000e+00 7.2088319317555909e+00 2.9544495663960586e+01 2.7505795061073105e+01 6 -4 0
2284 444 1 -1.0484000000000000e+00 3.0263262590542221e+00 2.5827242934691764e+01 2.7007693039829199e+01 2 -2 0
2900 444 2 5.2420000000000000e-01 3.2961488340492293e+00 2.6279319175076289e+01 2.9429934559660857e+01 6 1 0
1130 444 2 5.2420000000000000e-01 7.3194617224932224e-01 2.9225439426662213e+01 3.3809950767292527e+01 3 -5 0
160 444 1 -1.0484000000000000e+00 4.7699888215246720e+00 2.7184205319825459e+01 3.2300019789415622e+01 0 -1 0
161 444 2 5.2420000000000000e-01 4.4207265996606671e+00 2.7176986741938904e+01 3.1408843214941466e+01 0 -1 0
2442 444 2 5.2420000000000000e-01 7.1285005982348331e+00 2.6471114239085804e+01 2.6972711336481794e+01 -2 0 0
685 444 1 -1.0484000000000000e+00 1.3243059305783784e+00 2.7918716470349846e+01 2.7509356454756407e+01 0 4 0
2613 444 2 5.2420000000000000e-01 2.3692506239693687e+00 2.6133860311593843e+01 3.3800109958062642e+01 1 3 0
2102 444 2 5.2420000000000000e-01 7.2651070222544130e+00 2.9280558361704930e+01 3.2829253849884822e+01 -3 -1 0
2901 444 2 5.2420000000000000e-01 3.9407011981330853e+00 2.7641558706564126e+01 2.9285881866094925e+01 6 1 0
2899 444 1 -1.0484000000000000e+00 4.1086724670730623e+00 2.6754485145271154e+01 2.9603872953273370e+01 6 1 0
2611 444 1 -1.0484000000000000e+00 1.4971533463476780e+00 2.5744113447137195e+01 3.3738663031688304e+01 1 3 0
162 444 2 5.2420000000000000e-01 5.4352612765549129e+00 2.6495991959467926e+01 3.2302633329042749e+01 0 -1 0
2612 444 2 5.2420000000000000e-01 8.9659723384416323e-01 2.6482627280870560e+01 3.3839472068071231e+01 1 3 0
872 444 2 5.2420000000000000e-01 5.0943456720965621e+00 2.8638597516659384e+01 3.3026409525485015e+01 4 2 0
686 444 2 5.2420000000000000e-01 4.5065985140893461e-01 2.8124727588006021e+01 2.7176889412511507e+01 0 4 0
2276 444 2 5.2420000000000000e-01 5.3518792811756750e+00 2.5909349674069944e+01 2.8694186520748481e+01 4 4 0
1517 444 2 5.2420000000000000e-01 7.3224685435120502e+00 2.8643687023928919e+01 2.7202705333570549e+01 6 -4 0
873 444 2 5.2420000000000000e-01 5.0394275242103665e+00 2.9768393311515219e+01 3.4032610654790766e+01 4 2 0
2940 444 2 5.2420000000000000e-01 6.6300735763297691e+00 3.3114275887180895e+01 8.5100855838466103e+00 -3 -1 0
618 444 2 5.2420000000000000e-01 2.4217295644559216e+00 3.3911396293609855e+01 8.4607515188331703e+00 1 0 0
2938 444 1 -1.0484000000000000e+00 6.6044076231409914e+00 3.4005167068298903e+01 8.8592077277242200e+00 -3 -1 0
432 444 2 5.2420000000000000e-01 1.1977699043576993e+00 3.1672060279808502e+01 9.4804109260418006e+00 -1 -1 0
430 444 1 -1.0484000000000000e+00 2.5925254529784175e-01 3.1488342615102539e+01 9.4396068763533520e+00 -1 -1 0
1690 444 1 -1.0484000000000000e+00 2.8835417901974068e+00 3.2186998510163001e+01 9.5308833990584390e+00 12 1 0
1691 444 2 5.2420000000000000e-01 3.1763221210379569e+00 3.1277978372716504e+01 9.4661215872656808e+00 12 1 0
236 444 2 5.2420000000000000e-01 2.2058351709652761e+00 3.1543710739128198e+01 1.2896989834925984e+01 -1 0 0
345 444 2 5.2420000000000000e-01 3.8607360671616644e+00 3.2577425711264212e+01 1.3037955387935440e+01 7 -7 0
1692 444 2 5.2420000000000000e-01 2.8451497959321697e+00 3.2360328897286536e+01 1.0471476122857563e+01 12 1 0
237 444 2 5.2420000000000000e-01 9.3958844715486289e-01 3.1933770889330013e+01 1.3629361880857447e+01 -1 0 0
235 444 1 -1.0484000000000000e+00 1.4578338183178727e+00 3.1173440972678033e+01 1.3365634000133907e+01 -1 0 0
1219 444 1 -1.0484000000000000e+00 6.2351825603222277e+00 3.0864720332770322e+01 1.2226700891454527e+01 -1 4 0
344 444 2 5.2420000000000000e-01 4.7698138002617920e+00 3.1691316950375324e+01 1.2213161786996551e+01 7 -7 0
2007 444 2 5.2420000000000000e-01 5.4058203131306835e+00 3.2660598282564649e+01 1.6866808636049846e+01 -1 -3 0
1926 444 2 5.2420000000000000e-01 3.2913856943508972e+00 3.3431450585543836e+01 1.5062810213052206e+01 3 -4 0
343 444 1 -1.0484000000000000e+00 3.8536645139001875e+00 3.1948799185812611e+01 1.2316144675893902e+01 7 -7 0
431 444 2 5.2420000000000000e-01 2.0531328099104623e-01 3.0578381252584151e+01 9.1475573842036528e+00 -1 -1 0
2168 444 2 5.2420000000000000e-01 1.2237011126378943e+00 3.1584294006342379e+01 1.6225910423985535e+01 0 1 0
1924 444 1 -1.0484000000000000e+00 3.5984154573082230e+00 3.3794583430503884e+01 1.4232087853053430e+01 3 -4 0
96 444 2 5.2420000000000000e-01 8.8853513868786427e-01 3.3862298114410471e+01 1.7578499180280868e+01 4 5 0
94 444 1 -1.0484000000000000e+00 1.2324560280859060e+00 3.3001595160471304e+01 1.7339455655848582e+01 4 5 0
2005 444 1 -1.0484000000000000e+00 4.6926315042696078e+00 3.2024712505059902e+01 1.6923757080003146e+01 -1 -3 0
2169 444 2 5.2420000000000000e-01 1.1585636439660580e+00 3.0650962926370980e+01 1.5035723207447491e+01 0 1 0
2167 444 1 -1.0484000000000000e+00 1.1512383054015094e+00 3.0658729022378388e+01 1.5992863702240196e+01 0 1 0
63 444 2 5.2420000000000000e-01 5.8848970962154183e+00 3.0641859845993427e+01 1.6036784892476181e+01 -7 5 0
95 444 2 5.2420000000000000e-01 5.6166347910186998e-01 3.2385114812507787e+01 1.7633091792580426e+01 4 5 0
1220 444 2 5.2420000000000000e-01 6.6460686285500623e+00 3.0600148555991442e+01 1.1403653180669416e+01 -1 4 0
152 444 2 5.2420000000000000e-01 3.9241722346123837e+00 3.0297331602020694e+01 1.6852415770253039e+01 10 -2 0
1221 444 2 5.2420000000000000e-01 6.9256069450544517e+00 3.1327079601579097e+01 1.2701854068654280e+01 -1 4 0
1925 444 2 5.2420000000000000e-01 4.5067441052138326e+00 3.4045031520861713e+01 1.4400754117325897e+01 3 -4 0
836 444 2 5.2420000000000000e-01 7.2699576715487861e+00 3.3823915019016496e+01 1.2146930240520003e+01 -2 0 0
752 444 2 5.2420000000000000e-01 6.6302900206826862e+00 3.3902782592524723e+01 1.5657933909846506e+01 7 4 0
837 444 2 5.2420000000000000e-01 7.2724126832437141e+00 3.3435157031268673e+01 1.0683797173906353e+01 -2 0 0
2006 444 2 5.2420000000000000e-01 4.3083864492397224e+00 3.2171817923034794e+01 1.7788018840615969e+01 -1 -3 0
2380 444 1 -1.0484000000000000e+00 4.5572515122923338e+00 3.3560219608442551e+01 2.5534707688928293e+01 11 3 0
455 444 2 5.2420000000000000e-01 3.0287351248628176e+00 3.0516765578350324e+01 2.1571893757374941e+01 -6 9 0
2786 444 2 5.2420000000000000e-01 4.4197363838884787e+00 3.1094266341091590e+01 2.3176437295517385e+01 5 -2 0
944 444 2 5.2420000000000000e-01 4.0351114721715042e+00 3.3069791560311032e+01 2.0587217732957676e+01 -2 4 0
2837 444 2 5.2420000000000000e-01 2.3625507900972753e+00 3.2990270757303982e+01 2.3522753986946960e+01 0 8 0
2836 444 1 -1.0484000000000000e+00 2.4242574085676556e+00 3.3784457368692273e+01 2.4053500567140258e+01 0 8 0
1714 444 1 -1.0484000000000000e+00 8.4982618398079335e-01 3.1363267798673093e+01 2.5164547241452638e+01 4 0 0
733 444 1 -1.0484000000000000e+00 3.1391282820473911e+00 3.2299678423610956e+01 1.9342840824959723e+01 -5 1 0
735 444 2 5.2420000000000000e-01 2.4715228827520876e+00 3.2399008447941917e+01 1.8664114646185237e+01 -5 1 0
734 444 2 5.2420000000000000e-01 3.0915981841456994e+00 3.1376970002510859e+01 1.9593007876201014e+01 -5 1 0
943 444 1 -1.0484000000000000e+00 4.3846697754087618e+00 3.3691477090242088e+01 2.1225612590636736e+01 -2 4 0
1716 444 2 5.2420000000000000e-01 9.7468676658971654e-01 3.2301940642708878e+01 2.5024778715124675e+01 4 0 0
2826 444 2 5.2420000000000000e-01 3.4741288372559805e-02 3.0141133836244016e+01 1.9013427165046227e+01 -2 -8 0
2838 444 2 5.2420000000000000e-01 3.1242290425604682e+00 3.3600643743196613e+01 2.4679986230334482e+01 0 8 0
2785 444 1 -1.0484000000000000e+00 3.6199557069029380e+00 3.1532046448861458e+01 2.2885006808603990e+01 5 -2 0
2787 444 2 5.2420000000000000e-01 3.9080094569644586e+00 3.2404678851177302e+01 2.2617106624423503e+01 5 -2 0
1449 444 2 5.2420000000000000e-01 3.1113730875088191e-01 3.2347589588469219e+01 2.0203040297272405e+01 -10 0 0
1719 444 2 5.2420000000000000e-01 6.2217067598754534e+00 3.0971647174665780e+01 2.4884490215015735e+01 7 1 0
1717 444 1 -1.0484000000000000e+00 6.1932454674922290e+00 3.1478013755841957e+01 2.5696287515067322e+01 7 1 0
454 444 1 -1.0484000000000000e+00 3.0062900940772241e+00 2.9973795549961121e+01 2.0783913248119877e+01 -6 9 0
2369 444 2 5.2420000000000000e-01 6.8961268137495662e+00 3.0324506361707034e+01 2.2758425923960473e+01 7 -6 0
1718 444 2 5.2420000000000000e-01 7.1118160136716675e+00 3.1645661902651668e+01 2.5906892027236346e+01 7 1 0
2382 444 2 5.2420000000000000e-01 5.0033150481433175e+00 3.2726313641381289e+01 2.5386856017553441e+01 11 3 0
1715 444 2 5.2420000000000000e-01 2.5439456167771907e-01 3.1309049965913456e+01 2.5912045651020090e+01 4 0 0
1447 444 1 -1.0484000000000000e+00 1.3763929729331700e-01 3.3190639026535621e+01 2.0621846459199059e+01 -10 0 0
2381 444 2 5.2420000000000000e-01 5.1133509738128629e+00 3.4021882058576416e+01 2.6162284812832972e+01 11 3 0
1564 444 1 -1.0484000000000000e+00 2.6834978542531944e+00 3.0491465149642696e+01 3.1522444431728580e+01 9 5 0
1686 444 2 5.2420000000000000e-01 3.5990485278384110e+00 3.3378327742070844e+01 3.5122324391137909e+01 5 0 0
1684 444 1 -1.0484000000000000e+00 3.6044072868689878e+00 3.4207431598323083e+01 3.4644004302021770e+01 5 0 0
1763 444 2 5.2420000000000000e-01 4.3683533562339066e-01 3.2880073823087685e+01 3.0382663902098670e+01 4 4 0
1566 444 2 5.2420000000000000e-01 2.1704681470808294e+00 3.0350334466683695e+01 3.2318129958349232e+01 9 5 0
1565 444 2 5.2420000000000000e-01 3.5088174239691332e+00 3.0864584320618864e+01 3.1832059892676163e+01 9 5 0
1129 444 1 -1.0484000000000000e+00 1.2390128059223977e+00 3.0037228249704654e+01 3.3820683744716547e+01 3 -5 0
1317 444 2 5.2420000000000000e-01 4.0345850214367953e+00 3.3568334839078744e+01 2.9323988460302715e+01 3 -7 0
2244 444 2 5.2420000000000000e-01 6.5823942263340856e+00 3.1178913967014037e+01 3.0823875628714664e+01 -4 -3 0
2503 444 1 -1.0484000000000000e+00 3.5291951257811198e+00 3.1068431447276012e+01 3.5270700236199019e+01 1 0 0
2504 444 2 5.2420000000000000e-01 2.7270963444714234e+00 3.1009624105362882e+01 3.4751651399887592e+01 1 0 0
1748 444 2 5.2420000000000000e-01 6.5266845383389240e+00 3.3066748430071932e+01 3.1465156918328127e+01 -6 -9 0
1747 444 1 -1.0484000000000000e+00 6.8953254057087348e+00 3.3949194877338115e+01 3.1505459345379354e+01 -6 -9 0
1518 444 2 5.2420000000000000e-01 7.0063475876350818e+00 3.0040793695234516e+01 2.6712749824147835e+01 6 -4 0
2242 444 1 -1.0484000000000000e+00 5.9660063073593337e+00 3.1452225934901836e+01 3.1503286455836058e+01 -4 -3 0
268 444 1 -1.0484000000000000e+00 1.2943548899855513e+00 3.1852820419950554e+01 2.9211938553159751e+01 1 0 0
270 444 2 5.2420000000000000e-01 1.8847363893475251e+00 3.2383168163045717e+01 2.8676763036787850e+01 1 0 0
1316 444 2 5.2420000000000000e-01 4.2911320084593054e+00 3.3144427173939924e+01 2.7893470524645167e+01 3 -7 0
269 444 2 5.2420000000000000e-01 1.8550085346220817e+00 3.1484706422623162e+01 2.9894867348962102e+01 1 0 0
1315 444 1 -1.0484000000000000e+00 3.9169709719525310e+00 3.2836110704888341e+01 2.8718804640927647e+01 3 -7 0
1131 444 2 5.2420000000000000e-01 5.8080349258019359e-01 3.0730743735101139e+01 3.3865750614981536e+01 3 -5 0
2243 444 2 5.2420000000000000e-01 5.8852864872892203e+00 3.0688936974744710e+01 3.2075218598580754e+01 -4 -3 0
104 444 2 5.2420000000000000e-01 3.8685422250556845e+00 3.0068386284350119e+01 2.9097994398354157e+01 4 -6 0
1764 444 2 5.2420000000000000e-01 2.5001775702273255e-01 3.3894175314790886e+01 3.1491082875336321e+01 4 4 0
2505 444 2 5.2420000000000000e-01 3.2702189639577304e+00 3.0780573260088367e+01 3.6146086401480467e+01 1 0 0
424 444 1 -1.0484000000000000e+00 1.1315473547321350e+01 3.0583888052560271e+00 8.4064418717813787e+00 3 0 0
426 444 2 5.2420000000000000e-01 1.1672169798040779e+01 2.6663109252409178e+00 7.6094006699669841e+00 3 0 0
2411 444 2 5.2420000000000000e-01 8.3067217441252801e+00 2.9429784079226686e+00 8.2477624518896384e+00 6 3 0
425 444 2 5.2420000000000000e-01 1.0405448775209386e+01 2.7627657434726749e+00 8.4328146183324826e+00 3 0 0
2410 444 1 -1.0484000000000000e+00 8.6716528761219216e+00 2.2483357848259877e+00 8.7959680189646381e+00 6 3 0
2939 444 2 5.2420000000000000e-01 7.4469364282310497e+00 1.7616764124554074e-01 8.6099512661276094e+00 -3 0 0
2757 444 2 5.2420000000000000e-01 1.4368764551551306e+01 7.1631931209634148e-01 1.5436312493680651e+01 -3 5 0
2476 444 1 -1.0484000000000000e+00 1.3173867540192530e+01 2.9427525053930466e+00 1.0357370519713688e+01 -1 -6 0
2478 444 2 5.2420000000000000e-01 1.2511456193779598e+01 3.1277070774000615e+00 9.6916107214588845e+00 -1 -6 0
673 444 1 -1.0484000000000000e+00 9.0451609003876658e+00 3.5223535723384134e+00 1.1634703650098176e+01 -2 -1 0
958 444 1 -1.0484000000000000e+00 9.7803249015962326e+00 1.4555573017197270e+00 1.3309178058461008e+01 0 -5 0
2113 444 1 -1.0484000000000000e+00 1.2239663489376046e+01 3.3741077246257505e+00 1.7550633584476028e+01 0 -3 0
1118 444 2 5.2420000000000000e-01 9.6047828857516766e+00 2.0617051516955240e+00 1.6473240674140346e+01 6 -2 0
1119 444 2 5.2420000000000000e-01 9.7181867125285493e+00 2.1962486435436128e+00 1.4969600336150346e+01 6 -2 0
1117 444 1 -1.0484000000000000e+00 9.7895054045958485e+00 2.6974893633468136e+00 1.5781945454039096e+01 6 -2 0
675 444 2 5.2420000000000000e-01 8.1528530265613171e+00 3.6075912731215602e+00 1.1970492057188261e+01 -2 -1 0
804 444 2 5.2420000000000000e-01 1.3427365232405840e+01 2.3302843515503278e+00 1.2130258889526639e+01 -1 3 0
802 444 1 -1.0484000000000000e+00 1.3380588124524930e+01 2.1507257725363647e+00 1.3069302698382577e+01 -1 3 0
1202 444 2 5.2420000000000000e-01 1.3438815005818535e+01 1.2227816648174512e+00 9.8195298067812118e+00 3 1 0
2412 444 2 5.2420000000000000e-01 8.6147327486410195e+00 2.5915029163677490e+00 9.6877243040291212e+00 6 3 0
674 444 2 5.2420000000000000e-01 9.4438810116047200e+00 2.8457168963945758e+00 1.2181894956956837e+01 -2 -1 0
2114 444 2 5.2420000000000000e-01 1.1637834431544549e+01 2.8519795469543796e+00 1.7020146897732566e+01 0 -3 0
2692 444 1 -1.0484000000000000e+00 9.3779160158034234e+00 5.2271523653241048e-01 1.7408873074182708e+01 8 2 0
803 444 2 5.2420000000000000e-01 1.3232938111124041e+01 3.0072260459188223e+00 1.3470349995927956e+01 -1 3 0
1203 444 2 5.2420000000000000e-01 1.4657374517046142e+01 6.7913375709502666e-01 9.1043681140935036e+00 3 1 0
2796 444 2 5.2420000000000000e-01 1.2780983536085763e+01 7.1450354655386250e-01 1.4291631107870662e+01 4 -1 0
960 444 2 5.2420000000000000e-01 1.0275147886995152e+01 8.5712922828180427e-01 1.2749475134620223e+01 0 -5 0
959 444 2 5.2420000000000000e-01 8.8716927064861988e+00 1.1664018259833850e+00 1.3225458499582478e+01 0 -5 0
530 444 2 5.2420000000000000e-01 1.3751022861567806e+01 3.3388055716085816e+00 1.6173266851077692e+01 -3 6 0
1201 444 1 -1.0484000000000000e+00 1.3778931559971348e+01 4.3479830185599938e-01 9.3956949907229390e+00 3 1 0
2477 444 2 5.2420000000000000e-01 1.3877345946481009e+01 3.5658963925567542e+00 1.0175588969145512e+01 -1 -6 0
529 444 1 -1.0484000000000000e+00 1.4310109385765719e+01 3.4956377141984989e+00 1.5412308289033534e+01 -3 6 0
2794 444 1 -1.0484000000000000e+00 1.2800728927752965e+01 7.9794081798076344e-02 1.5007861623365956e+01 4 -1 0
2693 444 2 5.2420000000000000e-01 8.6455948578193613e+00 1.3477023974205829e-01 1.6929877999194080e+01 8 2 0
2115 444 2 5.2420000000000000e-01 1.2345843693988096e+01 2.8712379983590175e+00 1.8358148206668023e+01 0 -3 0
2802 444 2 5.2420000000000000e-01 9.6240724025662931e+00 3.5235718213360525e+00 2.6197714415716998e+01 -2 1 0
1871 444 2 5.2420000000000000e-01 1.1937324332278104e+01 4.9252601371660842e-01 1.8551440380320344e+01 4 3 0
2784 444 2 5.2420000000000000e-01 1.3855817698958022e+01 7.7306113808005639e-01 2.4705830587098916e+01 -1 3 0
2639 444 2 5.2420000000000000e-01 8.0288399301915234e+00 2.9539428972036448e+00 2.2331389536292797e+01 1 -5 0
1872 444 2 5.2420000000000000e-01 1.3216697969327878e+01 6.9899721867847142e-01 1.9334043975145701e+01 4 3 0
296 444 2 5.2420000000000000e-01 8.7507536903958396e+00 1.5569383520117965e+00 1.9438453811558322e+01 10 2 0
1061 444 2 5.2420000000000000e-01 1.0965805058299244e+01 2.0817203144711294e+00 1.9657964367778604e+01 0 -8 0
1870 444 1 -1.0484000000000000e+00 1.2325537238049225e+01 1.0349095887117150e+00 1.9237984535567854e+01 4 3 0
2694 444 2 5.2420000000000000e-01 9.0783381088365900e+00 5.5876458952902031e-01 1.8317270319327999e+01 8 2 0
295 444 1 -1.0484000000000000e+00 7.9547496596750120e+00 1.0270800054871256e+00 1.9481586604379494e+01 10 2 0
420 444 2 5.2420000000000000e-01 8.8599644507008968e+00 1.6301912569794192e+00 2.4029715231584483e+01 2 -2 0
2052 444 2 5.2420000000000000e-01 1.4294943519682263e+01 3.4103644854848865e+00 2.5206867009978740e+01 -8 -3 0
1705 444 1 -1.0484000000000000e+00 1.2835254802229072e+01 2.5083760203562160e+00 2.2687257458171779e+01 4 4 0
2051 444 2 5.2420000000000000e-01 1.3255677329760660e+01 2.6438510939548561e+00 2.4416753774464404e+01 -8 -3 0
1707 444 2 5.2420000000000000e-01 1.2918888630988707e+01 3.2096275768815823e+00 2.2041126884974179e+01 4 4 0
1706 444 2 5.2420000000000000e-01 1.3389048757327512e+01 1.8041611346932453e+00 2.2350172435024032e+01 4 4 0
418 444 1 -1.0484000000000000e+00 8.8499661377472698e+00 1.0062778924704088e+00 2.4755570436874063e+01 2 -2 0
2050 444 1 -1.0484000000000000e+00 1.3754682842859557e+01 2.6206466650742217e+00 2.5233262808225152e+01 -8 -3 0
1060 444 1 -1.0484000000000000e+00 1.0085724780548476e+01 2.4189271645664050e+00 1.9490679804806359e+01 0 -8 0
419 444 2 5.2420000000000000e-01 9.0548777072926416e+00 1.5333164559228731e+00 2.5527887998067502e+01 2 -2 0
2638 444 1 -1.0484000000000000e+00 8.9141245473499833e+00 2.6394942954144094e+00 2.2514763550018401e+01 1 -5 0
677 444 2 5.2420000000000000e-01 1.2733853312701310e+01 2.5677352806056013e+00 2.6660935544494482e+01 4 3 0
1062 444 2 5.2420000000000000e-01 1.0229223324820135e+01 3.2813482166391665e+00 1.9100974566433898e+01 0 -8 0
2640 444 2 5.2420000000000000e-01 9.3051818625812093e+00 2.5063807505060072e+00 2.1651289674196555e+01 1 -5 0
297 444 2 5.2420000000000000e-01 7.6149834132949064e+00 1.1758004469199768e+00 2.0364011232316535e+01 10 2 0
2976 444 2 5.2420000000000000e-01 1.4271023229192066e+01 4.0539168353925712e+00 2.0070087467209717e+01 -2 4 0
887 444 2 5.2420000000000000e-01 9.6986193631862516e+00 3.9602932309292140e+00 2.3976279873476624e+01 -3 6 0
744 444 2 5.2420000000000000e-01 1.0050492548505421e+01 2.3649242135183025e-02 2.4038318539651215e+01 6 5 0
2896 444 1 -1.0484000000000000e+00 1.3398343290051914e+01 1.7643098977478961e+00 3.2619994114352060e+01 -3 7 0
2089 444 1 -1.0484000000000000e+00 7.5740661502537030e+00 3.1504696952850071e+00 3.3872516460042398e+01 -3 0 0
552 444 2 5.2420000000000000e-01 1.2461431725483951e+01 3.4276386518800970e+00 3.5336615393278954e+01 -7 3 0
2091 444 2 5.2420000000000000e-01 7.6374152841693919e+00 3.1431822081486849e+00 3.2917442272896821e+01 -3 0 0
470 444 2 5.2420000000000000e-01 1.4598390280768381e+01 3.0601018979776335e+00 2.9828385930376999e+01 -5 7 0
2448 444 2 5.2420000000000000e-01 8.0091887330034996e+00 3.4713840304463228e+00 3.0245040689456197e+01 -4 -4 0
2446 444 1 -1.0484000000000000e+00 8.5079795511340421e+00 3.3704229019399392e+00 3.1055748115055952e+01 -4 -4 0
2090 444 2 5.2420000000000000e-01 8.3490493564335200e+00 2.6726911514163971e+00 3.4168086752139700e+01 -3 0 0
678 444 2 5.2420000000000000e-01 1.2881849856493893e+01 2.6124237434249413e+00 2.8166922157432325e+01 4 3 0
2684 444 2 5.2420000000000000e-01 1.0157513815159842e+01 3.5816359445773654e-01 3.0070608434929458e+01 3 8 0
2237 444 2 5.2420000000000000e-01 7.9865065385839014e+00 2.9258377784248788e+00 2.7888838601058364e+01 3 -4 0
2683 444 1 -1.0484000000000000e+00 9.5281803345711253e+00 4.5739659922347248e-01 3.0784978655481677e+01 3 8 0
1172 444 2 5.2420000000000000e-01 1.2547850070504333e+01 3.2483904764505489e+00 3.2169029330707474e+01 -8 1 0
676 444 1 -1.0484000000000000e+00 1.2225578430059453e+01 2.5610544808675879e+00 2.7472011389558944e+01 4 3 0
551 444 2 5.2420000000000000e-01 1.0956458467334063e+01 3.3646665124501340e+00 3.5488226584421831e+01 -7 3 0
2897 444 2 5.2420000000000000e-01 1.3577286123011886e+01 2.0673273327365460e+00 3.3510158478254731e+01 -3 7 0
2509 444 1 -1.0484000000000000e+00 9.6704588216678715e+00 2.0062686897133974e+00 3.5441749285167212e+01 -9 -2 0
469 444 1 -1.0484000000000000e+00 1.3696393240386648e+01 2.7397549347699943e+00 2.9831783635282804e+01 -5 7 0
2898 444 2 5.2420000000000000e-01 1.4152660981067044e+01 2.0593054597495311e+00 3.2109881669066908e+01 -3 7 0
2685 444 2 5.2420000000000000e-01 9.4456721537596469e+00 1.4037786105268553e+00 3.0902394151980577e+01 3 8 0
1171 444 1 -1.0484000000000000e+00 1.2117317139557496e+01 4.0690569063147857e+00 3.2408572558331585e+01 -8 1 0
2800 444 1 -1.0484000000000000e+00 9.5850050271573810e+00 2.8308255281826091e+00 2.6857114466802663e+01 -2 1 0
550 444 1 -1.0484000000000000e+00 1.1673995047082780e+01 3.9708932264732755e+00 3.5304207443385877e+01 -7 3 0
471 444 2 5.2420000000000000e-01 1.3762584632751913e+01 1.8396793565760101e+00 3.0150711119632813e+01 -5 7 0
2801 444 2 5.2420000000000000e-01 1.0497577169202998e+01 2.5744465785646327e+00 2.6990208373870715e+01 -2 1 0
2198 444 2 5.2420000000000000e-01 1.1694353348915563e+01 6.6544557865840270e-01 2.8349251449537082e+01 2 7 0
2511 444 2 5.2420000000000000e-01 9.7845736653625526e+00 1.0740670393526643e+00 3.5256789353999537e+01 -9 -2 0
2447 444 2 5.2420000000000000e-01 8.9502053892696143e+00 4.2113820907463024e+00 3.1171747693486036e+01 -4 -4 0
612 444 2 5.2420000000000000e-01 1.2490776476560605e+01 2.1930608603026847e-01 3.2999623062230626e+01 1 -8 0
1173 444 2 5.2420000000000000e-01 1.1550164328448966e+01 3.8368144863193510e+00 3.3143850325143433e+01 -8 1 0
2510 444 2 5.2420000000000000e-01 9.2608229755130651e+00 2.0309661757547421e+00 3.6306515406931297e+01 -9 -2 0
1430 444 2 5.2420000000000000e-01 1.3348613571624837e+01 2.2346411168845890e+00 3.6524788059759388e+01 -5 -3 0
1429 444 1 -1.0484000000000000e+00 1.3660935203366108e+01 2.0183130121692945e+00 3.5646215639390277e+01 -5 -3 0
1431 444 2 5.2420000000000000e-01 1.4610355084207713e+01 1.9419065718417008e+00 3.5741071646488251e+01 -5 -3 0
1275 444 2 5.2420000000000000e-01 8.9195468578985775e+00 7.9590422009431840e+00 8.7231170924570876e+00 -2 2 0
2136 444 2 5.2420000000000000e-01 9.4489446106720330e+00 6.1695299244336379e+00 9.4565040682567840e+00 -11 -3 0
2134 444 1 -1.0484000000000000e+00 8.5330116661993891e+00 6.4390847406995908e+00 9.5246153340498534e+00 -11 -3 0
1406 444 2 5.2420000000000000e-01 1.3517892705793740e+01 7.1050052105017203e+00 1.2078105969642605e+01 3 -6 0
1537 444 1 -1.0484000000000000e+00 1.1105830031736739e+01 5.4196415979285355e+00 9.5890728374022487e+00 -1 -6 0
1121 444 2 5.2420000000000000e-01 1.2274372256924259e+01 6.6468028568797832e+00 1.5363216689694303e+01 3 3 0
1120 444 1 -1.0484000000000000e+00 1.1525972848434463e+01 6.5924077527932816e+00 1.4768934069080638e+01 3 3 0
1122 444 2 5.2420000000000000e-01 1.0869185485385598e+01 6.0939342989345349e+00 1.5255130387054676e+01 3 3 0
815 444 2 5.2420000000000000e-01 9.2166784345117723e+00 7.7957168732116831e+00 1.2194165945510392e+01 -2 -3 0
814 444 1 -1.0484000000000000e+00 8.4800850378548844e+00 7.1859670661749391e+00 1.2150952563567310e+01 -2 -3 0
2152 444 1 -1.0484000000000000e+00 1.1959009435787568e+01 8.1365070702466777e+00 1.0170159584324299e+01 -4 -2 0
930 444 2 5.2420000000000000e-01 9.5937331040364686e+00 5.2156584157071979e+00 1.7481495649397399e+01 2 3 0
956 444 2 5.2420000000000000e-01 1.1192355162610207e+01 5.7480060608042018e+00 1.3232203793845260e+01 1 -2 0
2154 444 2 5.2420000000000000e-01 1.1796619786872551e+01 7.2564232352888514e+00 9.8305791440010495e+00 -4 -2 0
1407 444 2 5.2420000000000000e-01 1.3065823031669709e+01 5.6617647302919467e+00 1.2145822692185288e+01 3 -6 0
1500 444 2 5.2420000000000000e-01 8.8891440686855550e+00 7.5504847040219705e+00 1.7084838187284362e+01 1 -3 0
928 444 1 -1.0484000000000000e+00 9.1770273897674066e+00 5.1762513279226949e+00 1.6620661299144761e+01 2 3 0
929 444 2 5.2420000000000000e-01 9.4450467608804907e+00 4.3298800127533408e+00 1.6262813565294067e+01 2 3 0
2856 444 2 5.2420000000000000e-01 1.3113841983705484e+01 8.3752814192456100e+00 1.7075248957009883e+01 0 1 0
816 444 2 5.2420000000000000e-01 8.1364660798222630e+00 7.1610391441327010e+00 1.3044001657479068e+01 -2 -3 0
2135 444 2 5.2420000000000000e-01 8.4660206022834537e+00 6.8453067792367790e+00 1.0388749543459159e+01 -11 -3 0
1405 444 1 -1.0484000000000000e+00 1.3850873226067183e+01 6.2080610361088935e+00 1.2107227827906891e+01 3 -6 0
957 444 2 5.2420000000000000e-01 1.0337267446482020e+01 4.7703569840240920e+00 1.2454434410024140e+01 1 -2 0
2153 444 2 5.2420000000000000e-01 1.1209197942868592e+01 8.3171318131000351e+00 1.0737071987443574e+01 -4 -2 0
2854 444 1 -1.0484000000000000e+00 1.2383265961819422e+01 8.0006508847596205e+00 1.7567329450507689e+01 0 1 0
1539 444 2 5.2420000000000000e-01 1.1262654757987272e+01 4.5584104628217776e+00 9.2018780527461548e+00 -1 -6 0
2951 444 2 5.2420000000000000e-01 8.0407883003009797e+00 5.1911445204086686e+00 1.4141595569176324e+01 -3 1 0
2542 444 1 -1.0484000000000000e+00 7.9636400047470266e+00 8.0270390688044095e+00 1.4791652393061781e+01 -2 2 0
1538 444 2 5.2420000000000000e-01 1.1063390759871982e+01 5.2551346135543291e+00 1.0531075871355073e+01 -1 -6 0
2543 444 2 5.2420000000000000e-01 7.7075869694522154e+00 8.3064179710703634e+00 1.5670638430614217e+01 -2 2 0
538 444 1 -1.0484000000000000e+00 1.4773030455850899e+01 6.3148186529983947e+00 1.4665098866818452e+01 9 3 0
540 444 2 5.2420000000000000e-01 1.4401950261283307e+01 6.4219269974933271e+00 1.3789279119668258e+01 9 3 0
955 444 1 -1.0484000000000000e+00 1.1068292698262548e+01 5.3805685472470000e+00 1.2357085857506430e+01 1 -2 0
539 444 2 5.2420000000000000e-01 1.4605662389540861e+01 5.3986807132401333e+00 1.4886258804282432e+01 9 3 0
1498 444 1 -1.0484000000000000e+00 8.4505875657557343e+00 8.1040182669943892e+00 1.7730981492763792e+01 1 -3 0
41 444 2 5.2420000000000000e-01 7.4974171176899880e+00 5.2176448146746646e+00 8.9103533518812341e+00 -5 2 0
1736 444 2 5.2420000000000000e-01 1.4790596034950401e+01 5.1646593062523101e+00 1.0964611581978374e+01 -3 -2 0
1499 444 2 5.2420000000000000e-01 8.2235196716519390e+00 7.5069641886965304e+00 1.8443861953785195e+01 1 -3 0
1519 444 1 -1.0484000000000000e+00 7.5739064948489592e+00 5.9217719729495819e+00 2.3817679627711946e+01 -2 7 0
940 444 1 -1.0484000000000000e+00 8.0349142799461806e+00 7.5425136977754459e+00 2.1592701798750728e+01 0 3 0
942 444 2 5.2420000000000000e-01 8.1021776289785521e+00 7.0058034699813687e+00 2.2382417546652899e+01 0 3 0
1609 444 1 -1.0484000000000000e+00 1.0527556084311355e+01 5.3555599318813236e+00 1.9107782711928994e+01 -3 5 0
1611 444 2 5.2420000000000000e-01 1.0705651665167560e+01 5.7293859518383119e+00 1.9970782328536373e+01 -3 5 0
888 444 2 5.2420000000000000e-01 1.0770789985081720e+01 4.8887265913371190e+00 2.4505767782819081e+01 -3 6 0
1610 444 2 5.2420000000000000e-01 1.1389470640716517e+01 5.1151700468273624e+00 1.8767858278178522e+01 -3 5 0
1672 444 1 -1.0484000000000000e+00 1.2978677342515041e+01 6.7342401944848742e+00 1.9818602032001294e+01 1 0 0
886 444 1 -1.0484000000000000e+00 9.9303270601779428e+00 4.4932110240170209e+00 2.4736899701405989e+01 -3 6 0
615 444 2 5.2420000000000000e-01 1.3362280182045794e+01 6.0803826806583219e+00 2.3947667955806899e+01 -1 -8 0
613 444 1 -1.0484000000000000e+00 1.2743048117367067e+01 5.8573285158039070e+00 2.4642672294330062e+01 -1 -8 0
614 444 2 5.2420000000000000e-01 1.2695816494306827e+01 6.6453321274981860e+00 2.5184015123650962e+01 -1 -8 0
1521 444 2 5.2420000000000000e-01 8.2159070380104069e+00 5.5014241814359703e+00 2.4389847127517914e+01 -2 7 0
1673 444 2 5.2420000000000000e-01 1.2638444889683832e+01 7.0129656311414665e+00 1.8968433802048178e+01 1 0 0
941 444 2 5.2420000000000000e-01 8.9158921588008582e+00 7.5304486620471600e+00 2.1218582127428316e+01 0 3 0
2977 444 1 -1.0484000000000000e+00 1.0832815288617461e+01 7.9660051528729792e+00 2.1069633047252680e+01 -7 -6 0
393 444 2 5.2420000000000000e-01 1.4662259339093362e+01 5.0601214734964302e+00 2.2324502715409455e+01 2 -3 0
2978 444 2 5.2420000000000000e-01 1.1663209984639460e+01 7.6737054186892317e+00 2.0693815568878087e+01 -7 -6 0
1674 444 2 5.2420000000000000e-01 1.3740603159545794e+01 7.2941882436952339e+00 1.9967461558716309e+01 1 0 0
2975 444 2 5.2420000000000000e-01 1.3359372717615793e+01 5.1382694304837910e+00 2.0603912355355778e+01 -2 4 0
681 444 2 5.2420000000000000e-01 7.8472466904419278e+00 5.4947586071881886e+00 1.9280115922813415e+01 -2 3 0
2443 444 1 -1.0484000000000000e+00 1.3159119067955665e+01 8.4290955492907766e+00 2.5817239039801329e+01 -3 4 0
2974 444 1 -1.0484000000000000e+00 1.3722026807406536e+01 4.2794569900878106e+00 2.0821065015585113e+01 -2 4 0
2995 444 1 -1.0484000000000000e+00 9.4473231888569646e+00 5.7798628748369598e+00 3.1827970899077481e+01 8 0 0
2306 444 2 5.2420000000000000e-01 1.0622911403509704e+01 6.6185428434803741e+00 2.8317712548475317e+01 8 0 0
1287 444 2 5.2420000000000000e-01 1.4684593262190020e+01 6.4158718785307363e+00 3.3570791938729684e+01 -7 2 0
2997 444 2 5.2420000000000000e-01 9.1680652390229884e+00 5.8560568241272888e+00 3.2740353219686014e+01 8 0 0
1000 444 1 -1.0484000000000000e+00 8.0382591139414394e+00 5.9581446996990541e+00 3.4243973027560450e+01 0 -1 0
2163 444 2 5.2420000000000000e-01 1.3147353859014734e+01 5.6464418543220241e+00 2.8480585978951254e+01 4 -3 0
354 444 2 5.2420000000000000e-01 7.4274311491694638e+00 8.2319072714456212e+00 3.0849396906711696e+01 9 -2 0
2161 444 1 -1.0484000000000000e+00 1.2393396585926533e+01 5.4889047094552446e+00 2.9048884726300265e+01 4 -3 0
353 444 2 5.2420000000000000e-01 7.7541256750102372e+00 7.4289983293878237e+00 2.9608226594209462e+01 9 -2 0
627 444 2 5.2420000000000000e-01 1.2761818295787243e+01 7.2221220790953575e+00 3.1904106168108225e+01 -5 -3 0
352 444 1 -1.0484000000000000e+00 7.7263278275088014e+00 7.3688062762207025e+00 3.0563127706675797e+01 9 -2 0
1159 444 1 -1.0484000000000000e+00 1.1257248229900032e+01 6.5675452152088765e+00 3.4732577401003461e+01 0 3 0
625 444 1 -1.0484000000000000e+00 1.3057615316481126e+01 6.6418313837826064e+00 3.2605532416136008e+01 -5 -3 0
2451 444 2 5.2420000000000000e-01 1.0565042121122600e+01 7.2318679931966479e+00 3.1920618017818907e+01 -11 -8 0
2450 444 2 5.2420000000000000e-01 1.0840339378751638e+01 7.6582412789796157e+00 3.0494324767133325e+01 -11 -8 0
1160 444 2 5.2420000000000000e-01 1.1787972247321608e+01 6.6388767189419706e+00 3.3939182286785233e+01 0 3 0
2449 444 1 -1.0484000000000000e+00 1.0949532895505749e+01 7.9391824354917979e+00 3.1402829432738095e+01 -11 -8 0
2307 444 2 5.2420000000000000e-01 9.1542273730397952e+00 6.6201570563105578e+00 2.7950477787531682e+01 8 0 0
167 444 2 5.2420000000000000e-01 9.9701700869284497e+00 7.7787331350088582e+00 3.5409753910569790e+01 -2 -1 0
2305 444 1 -1.0484000000000000e+00 9.8187879997829057e+00 7.1285169117012925e+00 2.8415410924125148e+01 8 0 0
1161 444 2 5.2420000000000000e-01 1.1417435906984545e+01 5.6785960325381977e+00 3.5049344085611054e+01 0 3 0
2996 444 2 5.2420000000000000e-01 8.8682656809226881e+00 6.3730852566489284e+00 3.1349419323825931e+01 8 0 0
1002 444 2 5.2420000000000000e-01 7.7710873771966602e+00 5.0549900789253162e+00 3.4073199210756087e+01 0 -1 0
626 444 2 5.2420000000000000e-01 1.2707820673852945e+01 5.7826097031500252e+00 3.2369706645173984e+01 -5 -3 0
2857 444 1 -1.0484000000000000e+00 1.4647190023597188e+01 5.8585508594172184e+00 2.7659976990067687e+01 3 -2 0
2162 444 2 5.2420000000000000e-01 1.2549550099623495e+01 4.6202797104262778e+00 2.9419477827756488e+01 4 -3 0
2212 444 1 -1.0484000000000000e+00 7.5876277918500392e+00 6.0453201187044492e+00 2.7318984782565487e+01 -1 7 0
2858 444 2 5.2420000000000000e-01 1.4653580440057761e+01 5.6009292323314552e+00 2.6738118801365989e+01 3 -2 0
166 444 1 -1.0484000000000000e+00 9.7604710706469060e+00 8.4979747189129622e+00 3.6005531578303348e+01 -2 -1 0
253 444 1 -1.0484000000000000e+00 1.3365099313019593e+01 8.3977023428992297e+00 3.6107293477353601e+01 0 6 0
168 444 2 5.2420000000000000e-01 9.0651614702977845e+00 8.1514405325290884e+00 3.6564719186127306e+01 -2 -1 0
255 444 2 5.2420000000000000e-01 1.2613020063468898e+01 7.9200369057971889e+00 3.5757372001520046e+01 0 6 0
1274 444 2 5.2420000000000000e-01 1.0128608988393509e+01 8.8699497445277160e+00 8.7054408231139799e+00 -2 2 0
1190 444 2 5.2420000000000000e-01 8.3338239156911449e+00 1.0633530838550682e+01 8.8405192646550894e+00 -7 -1 0
322 444 1 -1.0484000000000000e+00 1.4768668641579733e+01 1.2116559230290846e+01 8.8616803794922401e+00 -1 -7 0
1273 444 1 -1.0484000000000000e+00 9.1739746597919449e+00 8.8803666074095915e+00 8.7747000399434825e+00 -2 2 0
671 444 2 5.2420000000000000e-01 1.0368738859540331e+01 9.9951052743886422e+00 1.1710352113695226e+01 6 -3 0
2855 444 2 5.2420000000000000e-01 1.1713882109966105e+01 8.6848440534760751e+00 1.7561231441243017e+01 0 1 0
2385 444 2 5.2420000000000000e-01 1.3763820293621189e+01 1.1930970496591987e+01 1.5727654684110709e+01 1 0 0
1426 444 1 -1.0484000000000000e+00 1.0207167523258827e+01 1.1562167191188447e+01 1.0938442198421514e+01 1 1 0
324 444 2 5.2420000000000000e-01 1.4059358455008258e+01 1.2618943985881474e+01 9.2625802846062513e+00 -1 -7 0
382 444 1 -1.0484000000000000e+00 9.8004907211909078e+00 1.2101657912258096e+01 1.3542576996523277e+01 9 7 0
1402 444 1 -1.0484000000000000e+00 1.1300973191512114e+01 1.0130200106453799e+01 1.5058989767934639e+01 -4 5 0
2544 444 2 5.2420000000000000e-01 7.9301633363946191e+00 8.8265737710499508e+00 1.4266432693170168e+01 -2 2 0
2383 444 1 -1.0484000000000000e+00 1.3344140681994576e+01 1.2358204025788266e+01 1.6474362505608376e+01 1 0 0
1403 444 2 5.2420000000000000e-01 1.1229838572591568e+01 1.0160339451500864e+01 1.6013067464089588e+01 -4 5 0
1821 444 2 5.2420000000000000e-01 1.1965597284699058e+01 1.1241401321734910e+01 1.7326226007938725e+01 -3 4 0
927 444 2 5.2420000000000000e-01 1.4406045463852434e+01 1.2213817019537450e+01 1.3845877842280293e+01 -14 -7 0
1427 444 2 5.2420000000000000e-01 9.8791175802153042e+00 1.1954257321359769e+01 1.1747689989911706e+01 1 1 0
1189 444 1 -1.0484000000000000e+00 7.8722904768408473e+00 1.1388734719519109e+01 9.2050545217210615e+00 -7 -1 0
1819 444 1 -1.0484000000000000e+00 1.1335592880107482e+01 1.0672548488286012e+01 1.7768644444925304e+01 -3 4 0
380 444 2 5.2420000000000000e-01 1.4744116002032195e+01 9.4139248637305890e+00 1.1080010924060183e+01 -4 -1 0
1404 444 2 5.2420000000000000e-01 1.0881097654540952e+01 9.3059419085943507e+00 1.4812950252103166e+01 -4 5 0
2210 444 2 5.2420000000000000e-01 1.3434202568196683e+01 9.0167948774994624e+00 8.9831197972228640e+00 7 -4 0
323 444 2 5.2420000000000000e-01 1.4470968535588632e+01 1.1207676343052290e+01 8.9009201730114604e+00 -1 -7 0
1347 444 2 5.2420000000000000e-01 1.2555209176254730e+01 9.2516256831433186e+00 1.4009330921565208e+01 -2 1 0
383 444 2 5.2420000000000000e-01 9.0182087782748646e+00 1.1552356649648134e+01 1.3592927716258005e+01 9 7 0
1428 444 2 5.2420000000000000e-01 1.0883734734139397e+01 1.2167712870431332e+01 1.0635449842473204e+01 1 1 0
672 444 2 5.2420000000000000e-01 1.1246366568872704e+01 9.0221176645447656e+00 1.2468613878401168e+01 6 -3 0
1345 444 1 -1.0484000000000000e+00 1.2756555884435496e+01 8.8943858643440610e+00 1.3144419597430316e+01 -2 1 0
1191 444 2 5.2420000000000000e-01 8.2852187990576827e+00 1.1534406820153290e+01 1.0056231250912758e+01 -7 -1 0
384 444 2 5.2420000000000000e-01 1.0526457702718107e+01 1.1501631156690825e+01 1.3713374367933108e+01 9 7 0
1346 444 2 5.2420000000000000e-01 1.3590450648585440e+01 9.2992135325490359e+00 1.2905742762917235e+01 -2 1 0
670 444 1 -1.0484000000000000e+00 1.0336759748259793e+01 9.1847527801172522e+00 1.2218818627010300e+01 6 -3 0
2209 444 1 -1.0484000000000000e+00 1.4340983965411608e+01 9.3191360442799080e+00 9.0338175291496938e+00 7 -4 0
937 444 1 -1.0484000000000000e+00 7.4095955501540445e+00 1.0487769585184619e+01 1.3698689321918845e+01 1 -3 0
87 444 2 5.2420000000000000e-01 8.3314109619711321e+00 1.0147794954282618e+01 1.8090279018937565e+01 1 8 0
85 444 1 -1.0484000000000000e+00 8.3642641078075286e+00 1.1103491575016418e+01 1.8132671647312126e+01 1 8 0
2591 444 2 5.2420000000000000e-01 1.4594040534765384e+01 1.1472131201078318e+01 2.4885418548137309e+01 -4 2 0
86 444 2 5.2420000000000000e-01 7.9792951643619183e+00 1.1319414201682807e+01 1.8982029519689696e+01 1 8 0
2670 444 2 5.2420000000000000e-01 8.3580561532090023e+00 1.1510773950442573e+01 2.6127491415068139e+01 5 0 0
1785 444 2 5.2420000000000000e-01 8.5877820343014779e+00 1.1458676302838455e+01 2.3824818649088265e+01 -1 5 0
1820 444 2 5.2420000000000000e-01 1.0524583554130151e+01 1.1180667292693547e+01 1.7786322693740058e+01 -3 4 0
411 444 2 5.2420000000000000e-01 1.1437186877446599e+01 1.0863688656352105e+01 1.9703142386959858e+01 0 0 0
2592 444 2 5.2420000000000000e-01 1.3206309687761571e+01 1.1915014196984629e+01 2.4473164505209578e+01 -4 2 0
1745 444 2 5.2420000000000000e-01 7.5005920689058270e+00 1.1331405040224070e+01 2.1378207338708158e+01 -1 -2 0
1938 444 2 5.2420000000000000e-01 1.1190569127729884e+01 1.0702801999962700e+01 2.3692845639591905e+01 -1 -1 0
1937 444 2 5.2420000000000000e-01 1.1636792143106648e+01 1.0541768823523533e+01 2.2255191500694956e+01 -1 -1 0
1936 444 1 -1.0484000000000000e+00 1.1443166028710609e+01 1.0041864472143612e+01 2.3048184259696910e+01 -1 -1 0
2590 444 1 -1.0484000000000000e+00 1.3700752763765994e+01 1.1568002813543382e+01 2.5215687973766116e+01 -4 2 0
2445 444 2 5.2420000000000000e-01 1.2751947964498587e+01 9.1837091867420000e+00 2.5391795121336973e+01 -3 4 0
409 444 1 -1.0484000000000000e+00 1.1634332758616280e+01 1.1107823136777077e+01 2.0607445518225624e+01 0 0 0
1783 444 1 -1.0484000000000000e+00 8.8276472757024127e+00 1.2114912941123938e+01 2.4479074321685857e+01 -1 5 0
410 444 2 5.2420000000000000e-01 1.0945395255363932e+01 1.1728815890769070e+01 2.0844016042779366e+01 0 0 0
854 444 2 5.2420000000000000e-01 1.3013471620512700e+01 1.2248905733134956e+01 2.0497077860429354e+01 1 -2 0
2481 444 2 5.2420000000000000e-01 7.9434466809763080e+00 9.3228454111463215e+00 2.1988111336766838e+01 -4 -1 0
2479 444 1 -1.0484000000000000e+00 7.7909246625396076e+00 1.0030872460939262e+01 2.2613944707965562e+01 -4 -1 0
2979 444 2 5.2420000000000000e-01 1.1072707208395894e+01 8.6903687711381412e+00 2.1647544596537756e+01 -7 -6 0
850 444 1 -1.0484000000000000e+00 1.3267328217920367e+01 9.4820639154835202e+00 2.8392672835893887e+01 -6 0 0
2444 444 2 5.2420000000000000e-01 1.3181532371946560e+01 8.6603037706609154e+00 2.6745826021563612e+01 -3 4 0
14 444 2 5.2420000000000000e-01 7.8041423490726816e+00 1.0159672722088599e+01 3.2583276983478271e+01 -3 -3 0
116 444 2 5.2420000000000000e-01 1.0421528703206151e+01 9.5865267932541638e+00 3.1703016004938508e+01 3 -9 0
2668 444 1 -1.0484000000000000e+00 8.1444983496549579e+00 1.1137649559259906e+01 2.6982713535210500e+01 5 0 0
852 444 2 5.2420000000000000e-01 1.4110970406452729e+01 9.8258212741665520e+00 2.8098850682186058e+01 -6 0 0
1038 444 2 5.2420000000000000e-01 1.4017548858355603e+01 1.2367010569798463e+01 3.2690842063668633e+01 -5 -5 0
15 444 2 5.2420000000000000e-01 8.6560447063863446e+00 1.0335657280799872e+01 3.1344250345931115e+01 -3 -3 0
422 444 2 5.2420000000000000e-01 1.3215224435700982e+01 9.8983568924105345e+00 3.4026216871569567e+01 -2 4 0
851 444 2 5.2420000000000000e-01 1.3451218108138784e+01 9.0935351967843054e+00 2.9247928436486820e+01 -6 0 0
1650 444 2 5.2420000000000000e-01 8.6206391935342488e+00 9.4743054638079265e+00 3.4749108582757721e+01 2 2 0
2761 444 1 -1.0484000000000000e+00 9.6078883826918364e+00 9.7481463593953297e+00 2.8727605945245315e+01 4 -5 0
1648 444 1 -1.0484000000000000e+00 8.0677099167825865e+00 1.0097631139593009e+01 3.4277975616663532e+01 2 2 0
2430 444 2 5.2420000000000000e-01 1.3966379167878994e+01 1.2338573410132055e+01 2.6680923595906414e+01 1 -4 0
2885 444 2 5.2420000000000000e-01 1.2212897269685872e+01 1.1584153320959874e+01 3.5235892701163031e+01 -3 -1 0
1188 444 2 5.2420000000000000e-01 8.0796987190166103e+00 1.1821475148785012e+01 3.4839967570486515e+01 2 -4 0
135 444 2 5.2420000000000000e-01 1.0740891667139142e+01 1.0852963485852413e+01 2.9122139295152721e+01 -5 -4 0
421 444 1 -1.0484000000000000e+00 1.2654425397343593e+01 1.0655903391664436e+01 3.3859304368224848e+01 -2 4 0
13 444 1 -1.0484000000000000e+00 7.7893750989506065e+00 1.0049326057177003e+01 3.1632573301498958e+01 -3 -3 0
134 444 2 5.2420000000000000e-01 1.2164657425448363e+01 1.0721987057848574e+01 2.9619766309650327e+01 -5 -4 0
423 444 2 5.2420000000000000e-01 1.1950458011810541e+01 1.0316260929443210e+01 3.3306760038658254e+01 -2 4 0
117 444 2 5.2420000000000000e-01 1.0768593276180198e+01 1.1018971346992645e+01 3.1357263484928417e+01 3 -9 0
133 444 1 -1.0484000000000000e+00 1.1453575687491233e+01 1.1354621145059674e+01 2.9517933486257832e+01 -5 -4 0
115 444 1 -1.0484000000000000e+00 1.0332463736251977e+01 1.0484897363188125e+01 3.2021182290762233e+01 3 -9 0
2762 444 2 5.2420000000000000e-01 9.7042190753728406e+00 8.8167683804962245e+00 2.8528889031189482e+01 4 -5 0
462 444 2 5.2420000000000000e-01 8.6651383764720915e+00 1.2454033650942844e+01 2.8126012874206374e+01 3 4 0
2763 444 2 5.2420000000000000e-01 9.0861940438692148e+00 1.0095216523057905e+01 2.8003997317763524e+01 4 -5 0
1186 444 1 -1.0484000000000000e+00 8.0292798114226827e+00 1.2775043986183684e+01 3.4773659592315340e+01 2 -4 0
2428 444 1 -1.0484000000000000e+00 1.4219653923702861e+01 1.2820460912462169e+01 2.7468240748542449e+01 1 -4 0
2884 444 1 -1.0484000000000000e+00 1.1969916860713807e+01 1.2364917219243166e+01 3.5733487143946078e+01 -3 -1 0
254 444 2 5.2420000000000000e-01 1.3046583680417516e+01 8.7816709994581768e+00 3.6924207542524506e+01 0 6 0
361 444 1 -1.0484000000000000e+00 1.2723343526311428e+01 1.0014547038510974e+01 3.8311306799969643e+01 -6 -1 0
2829 444 2 5.2420000000000000e-01 1.4247519023905532e+01 1.1050396875127204e+01 3.7811341586679497e+01 -1 -3 0
1898 444 2 5.2420000000000000e-01 1.0729208411239059e+01 1.1600878943044973e+01 3.6768867758650934e+01 0 -4 0
1899 444 2 5.2420000000000000e-01 1.0207620132880590e+01 1.0180307525830376e+01 3.6726196642873525e+01 0 -4 0
2874 444 2 5.2420000000000000e-01 9.1179105856200060e+00 1.1903628571004107e+01 3.7696645783485259e+01 4 -4 0
1897 444 1 -1.0484000000000000e+00 1.0421241565914274e+01 1.0890371773498510e+01 3.7331512997697729e+01 0 -4 0
363 444 2 5.2420000000000000e-01 1.2446109771503075e+01 9.9181597761920344e+00 3.9222395609465053e+01 -6 -1 0
2872 444 1 -1.0484000000000000e+00 8.3863799471173053e+00 1.2502209618125880e+01 3.7847627641540726e+01 4 -4 0
362 444 2 5.2420000000000000e-01 1.1942744479260986e+01 1.0328476301949005e+01 3.7854858019266793e+01 -6 -1 0
522 444 2 5.2420000000000000e-01 1.2842882898207256e+01 1.6717969893432393e+01 8.7480671950246691e+00 12 -4 0
2936 444 2 5.2420000000000000e-01 1.0700514991239723e+01 1.6245352922321022e+01 7.9364575645866822e+00 5 -3 0
2935 444 1 -1.0484000000000000e+00 1.0105858669238039e+01 1.5872936690389677e+01 8.5875510815431859e+00 5 -3 0
2937 444 2 5.2420000000000000e-01 9.3186720048619822e+00 1.5646872286846467e+01 8.0921079051507689e+00 5 -3 0
798 444 2 5.2420000000000000e-01 1.0708149331958657e+01 1.3188691549356331e+01 1.5196703599651885e+01 -5 3 0
1466 444 2 5.2420000000000000e-01 1.3559972683091482e+01 1.4078665688722937e+01 1.2628335237890605e+01 -3 -1 0
1467 444 2 5.2420000000000000e-01 1.2730387322847550e+01 1.3801835853801471e+01 1.3864073339558724e+01 -3 -1 0
797 444 2 5.2420000000000000e-01 1.0921539273687099e+01 1.4684102199090310e+01 1.5297239682756187e+01 -5 3 0
1465 444 1 -1.0484000000000000e+00 1.3585859135944540e+01 1.3626983096063833e+01 1.3471866284227740e+01 -3 -1 0
2507 444 2 5.2420000000000000e-01 8.5523602253604203e+00 1.6078685810450889e+01 1.5037919584389634e+01 4 -1 0
2144 444 2 5.2420000000000000e-01 1.0892053029175667e+01 1.5389358615884710e+01 1.2244647917685636e+01 -1 2 0
796 444 1 -1.0484000000000000e+00 1.1385102999876082e+01 1.3862573400437862e+01 1.5134661856135265e+01 -5 3 0
2506 444 1 -1.0484000000000000e+00 9.4803316605592833e+00 1.6306028004325167e+01 1.4979454757747593e+01 4 -1 0
2394 444 2 5.2420000000000000e-01 8.1186098054427429e+00 1.4455284962527861e+01 1.1374992508358062e+01 2 6 0
1662 444 2 5.2420000000000000e-01 1.2084710253462147e+01 1.4493307512420087e+01 1.0879576021374779e+01 -1 -4 0
561 444 2 5.2420000000000000e-01 9.6624588758758048e+00 1.4033656461645169e+01 1.3312701499583545e+01 5 1 0
77 444 2 5.2420000000000000e-01 1.3037720322268811e+01 1.3571634843791774e+01 1.7697922571123222e+01 2 -5 0
560 444 2 5.2420000000000000e-01 9.0178497535505056e+00 1.5399108618042293e+01 1.3203542966861264e+01 5 1 0
488 444 2 5.2420000000000000e-01 1.4746170447615025e+01 1.4761484003705560e+01 1.7500104137814912e+01 -3 0 0
2145 444 2 5.2420000000000000e-01 1.1981890773072575e+01 1.6431507382272436e+01 1.2110200331652553e+01 -1 2 0
559 444 1 -1.0484000000000000e+00 9.2601142660325308e+00 1.4632683808467398e+01 1.2683799510706145e+01 5 1 0
2143 444 1 -1.0484000000000000e+00 1.1840743060848828e+01 1.5504011704572511e+01 1.2300098055188247e+01 -1 2 0
1661 444 2 5.2420000000000000e-01 1.1454508014861775e+01 1.4244707412043486e+01 9.5257152818607338e+00 -1 -4 0
998 444 2 5.2420000000000000e-01 1.4655583023639513e+01 1.5295576952888977e+01 9.8975639535064346e+00 1 8 0
2906 444 2 5.2420000000000000e-01 7.7582532646198166e+00 1.6250825742965464e+01 1.1153364643403789e+01 4 -8 0
1904 444 2 5.2420000000000000e-01 7.7718678971633635e+00 1.5605940094579719e+01 1.7283911414584942e+01 6 -1 0
1660 444 1 -1.0484000000000000e+00 1.2111185839278038e+01 1.3898570342129327e+01 1.0130029510623791e+01 -1 -4 0
997 444 1 -1.0484000000000000e+00 1.4611670049284998e+01 1.5337543832088922e+01 8.9422926459298342e+00 1 8 0
912 444 2 5.2420000000000000e-01 1.4524490550052031e+01 1.6273488928115892e+01 1.1688535270912951e+01 1 2 0
2384 444 2 5.2420000000000000e-01 1.2837945093023002e+01 1.3073103094455639e+01 1.6088464458818738e+01 1 0 0
2231 444 2 5.2420000000000000e-01 1.0492947309081826e+01 1.3342289259216122e+01 2.4457046284049003e+01 2 -1 0
76 444 1 -1.0484000000000000e+00 1.3164647377415994e+01 1.4301893927570449e+01 1.8303598498084980e+01 2 -5 0
1905 444 2 5.2420000000000000e-01 8.7945727535482359e+00 1.4784825643284318e+01 1.8040047014166031e+01 6 -1 0
317 444 2 5.2420000000000000e-01 1.4336047751561878e+01 1.4182951925755155e+01 2.3600408593755979e+01 11 -1 0
78 444 2 5.2420000000000000e-01 1.3386846532830003e+01 1.3886672326579731e+01 1.9136935628232202e+01 2 -5 0
630 444 2 5.2420000000000000e-01 8.3555516161670678e+00 1.4964838842258482e+01 2.2335634070135903e+01 -8 -3 0
628 444 1 -1.0484000000000000e+00 8.9654404868436259e+00 1.4590020817994635e+01 2.2971070063627714e+01 -8 -3 0
1784 444 2 5.2420000000000000e-01 8.3910882350764329e+00 1.2915286494471244e+01 2.4187439688028807e+01 -1 5 0
586 444 1 -1.0484000000000000e+00 1.0377017935467812e+01 1.4219315822307573e+01 1.8169866454270213e+01 9 -1 0
588 444 2 5.2420000000000000e-01 1.1246972046536451e+01 1.4597700194655395e+01 1.8297294531999977e+01 9 -1 0
641 444 2 5.2420000000000000e-01 7.7915235505636895e+00 1.5622190581837694e+01 1.9978290169812176e+01 -1 0 0
2137 444 1 -1.0484000000000000e+00 1.0946747186876062e+01 1.5985187898596525e+01 2.6605880133846043e+01 1 -2 0
74 444 2 5.2420000000000000e-01 9.8237529392855016e+00 1.3601731609884389e+01 2.1288317929741961e+01 1 1 0
1099 444 1 -1.0484000000000000e+00 9.4645138598359502e+00 1.6992835793656543e+01 2.4226831049732166e+01 4 5 0
629 444 2 5.2420000000000000e-01 9.4740193321102559e+00 1.5337542565715049e+01 2.3285379933010400e+01 -8 -3 0
318 444 2 5.2420000000000000e-01 1.2890949968823209e+01 1.3760667901868198e+01 2.3441454379374942e+01 11 -1 0
640 444 1 -1.0484000000000000e+00 7.7530804393715878e+00 1.5850969316621063e+01 2.0906953400445289e+01 -1 0 0
1101 444 2 5.2420000000000000e-01 8.5834533969406532e+00 1.6636986172250680e+01 2.4342310115684533e+01 4 5 0
316 444 1 -1.0484000000000000e+00 1.3638058747489861e+01 1.4102541832102022e+01 2.2950348612097354e+01 11 -1 0
587 444 2 5.2420000000000000e-01 1.0117229124176687e+01 1.3916492489756402e+01 1.9039947548034647e+01 9 -1 0
2232 444 2 5.2420000000000000e-01 1.1718231047105398e+01 1.3411709578770836e+01 2.5343474969249783e+01 2 -1 0
2345 444 2 5.2420000000000000e-01 1.2747469764869257e+01 1.5911779518906066e+01 2.3447906991685098e+01 -1 4 0
2346 444 2 5.2420000000000000e-01 1.2027969981130505e+01 1.6063348345696078e+01 2.4771252144941585e+01 -1 4 0
2230 444 1 -1.0484000000000000e+00 1.1449688319222801e+01 1.3338734787878369e+01 2.4427619428247006e+01 2 -1 0
2344 444 1 -1.0484000000000000e+00 1.2784463524771880e+01 1.6383585975421706e+01 2.4279929922464881e+01 -1 4 0
855 444 2 5.2420000000000000e-01 1.3713483603968855e+01 1.3248848845046144e+01 2.1392619728271860e+01 1 -2 0
989 444 2 5.2420000000000000e-01 1.4272615154868751e+01 1.6110400310123033e+01 2.1715336649978244e+01 6 2 0
853 444 1 -1.0484000000000000e+00 1.3707305318296411e+01 1.2908320262891706e+01 2.0498060877746365e+01 1 -2 0
73 444 1 -1.0484000000000000e+00 9.6334846292731342e+00 1.3004499119509207e+01 2.0564893265269117e+01 1 1 0
1903 444 1 -1.0484000000000000e+00 7.8790133217339724e+00 1.5062972036358085e+01 1.8064896377884754e+01 6 -1 0
1683 444 2 5.2420000000000000e-01 1.4361687133580414e+01 1.6985906363837927e+01 2.4552385472430231e+01 4 3 0
75 444 2 5.2420000000000000e-01 8.6914975278312365e+00 1.2845900999739964e+01 2.0626039278833527e+01 1 1 0
1630 444 1 -1.0484000000000000e+00 8.2374354704146988e+00 1.6873425839417685e+01 3.2358737236535099e+01 -2 9 0
1390 444 1 -1.0484000000000000e+00 1.0908163107192934e+01 1.3499534090580731e+01 3.1471730556804633e+01 0 -3 0
1458 444 2 5.2420000000000000e-01 9.4187770987823836e+00 1.3419155905661228e+01 3.4298192315576877e+01 3 -2 0
1392 444 2 5.2420000000000000e-01 1.1060586433126423e+01 1.4390197611196864e+01 3.1155947215605931e+01 0 -3 0
1916 444 2 5.2420000000000000e-01 1.4503088100629373e+01 1.7029160848139583e+01 3.3160294930421365e+01 -1 6 0
1592 444 2 5.2420000000000000e-01 1.2375943930422784e+01 1.5596550043332476e+01 3.1976394267628532e+01 -1 -4 0
1187 444 2 5.2420000000000000e-01 7.5035852036639561e+00 1.3040618465726929e+01 3.5528210672710522e+01 2 -4 0
1591 444 1 -1.0484000000000000e+00 1.1660044572876854e+01 1.6020116041369452e+01 3.1502776332083013e+01 -1 -4 0
2472 444 2 5.2420000000000000e-01 1.1430831713677119e+01 1.6669062194528731e+01 3.5404768237423809e+01 -3 3 0
2556 444 2 5.2420000000000000e-01 1.1214865871846101e+01 1.2882462908350623e+01 2.7907494658827666e+01 1 1 0
1456 444 1 -1.0484000000000000e+00 1.0307781466515600e+01 1.3754989913025359e+01 3.4183655201651383e+01 3 -2 0
1036 444 1 -1.0484000000000000e+00 1.3685242519982440e+01 1.3191965143611686e+01 3.2336927523556568e+01 -5 -5 0
2138 444 2 5.2420000000000000e-01 1.1021095594488026e+01 1.6423764822036741e+01 2.7453438140979419e+01 1 -2 0
2139 444 2 5.2420000000000000e-01 1.1052588158732306e+01 1.5055303664520981e+01 2.6806740595335114e+01 1 -2 0
2736 444 2 5.2420000000000000e-01 1.1420213848217530e+01 1.6863230636180283e+01 2.9775923675855122e+01 -3 3 0
461 444 2 5.2420000000000000e-01 8.0782293381716084e+00 1.3254213818544846e+01 2.9269317682148763e+01 3 4 0
2192 444 2 5.2420000000000000e-01 1.3651529954132618e+01 1.4696936961130834e+01 3.3389945093227105e+01 -4 -3 0
1312 444 1 -1.0484000000000000e+00 9.7873072644892520e+00 1.6461444289243996e+01 3.4496158078521930e+01 14 0 0
2555 444 2 5.2420000000000000e-01 1.2554167457861146e+01 1.3468829660354977e+01 2.7514632587218841e+01 1 1 0
2193 444 2 5.2420000000000000e-01 1.3115009690184907e+01 1.5452542772927876e+01 3.4587068018593719e+01 -4 -3 0
1457 444 2 5.2420000000000000e-01 1.0535307455347390e+01 1.3529110445907863e+01 3.3281744696956238e+01 3 -2 0
1037 444 2 5.2420000000000000e-01 1.2901781679403681e+01 1.2944206387741012e+01 3.1845972540523668e+01 -5 -5 0
2554 444 1 -1.0484000000000000e+00 1.1641176063336857e+01 1.3411116155529779e+01 2.7232944955923745e+01 1 1 0
2191 444 1 -1.0484000000000000e+00 1.3570123371024561e+01 1.5578277410268976e+01 3.3754424830256255e+01 -4 -3 0
1314 444 2 5.2420000000000000e-01 9.8965936379865465e+00 1.5519477292128322e+01 3.4365825036453700e+01 14 0 0
1313 444 2 5.2420000000000000e-01 9.2745501641466532e+00 1.6750274081284044e+01 3.3741247817296255e+01 14 0 0
2886 444 2 5.2420000000000000e-01 1.1382625772768185e+01 1.2847255901547308e+01 3.5151532915380535e+01 -3 -1 0
1391 444 2 5.2420000000000000e-01 1.1053098193024516e+01 1.2945007245961948e+01 3.0705097509851029e+01 0 -3 0
1631 444 2 5.2420000000000000e-01 7.7085078558350855e+00 1.6089741238733058e+01 3.2508092716052161e+01 -2 9 0
460 444 1 -1.0484000000000000e+00 8.7273959176706644e+00 1.3301081552340831e+01 2.8567449709639792e+01 3 4 0
1593 444 2 5.2420000000000000e-01 1.1347312849336243e+01 1.6700536685538992e+01 3.2098980291741007e+01 -1 -4 0
2873 444 2 5.2420000000000000e-01 8.7272018956323869e+00 1.3363434238083567e+01 3.7606040314265556e+01 4 -4 0
2739 444 2 5.2420000000000000e-01 1.3450491714836883e+01 1.4729758788348905e+01 3.7153385521354572e+01 3 6 0
1883 444 2 5.2420000000000000e-01 1.0108774860791682e+01 1.4517945487318674e+01 3.6284166110588693e+01 -6 -5 0
2737 444 1 -1.0484000000000000e+00 1.3851165909718855e+01 1.3890142712177097e+01 3.6928136549677376e+01 3 6 0
2738 444 2 5.2420000000000000e-01 1.3140199675519767e+01 1.3382073321273358e+01 3.6537464595615006e+01 3 6 0
1882 444 1 -1.0484000000000000e+00 1.0101876963430554e+01 1.4557403671283726e+01 3.7240527725306016e+01 -6 -5 0
2470 444 1 -1.0484000000000000e+00 1.2054007742728270e+01 1.6395732791339736e+01 3.6077951537291497e+01 -3 3 0
1884 444 2 5.2420000000000000e-01 1.0840622523786099e+01 1.5124094800178902e+01 3.7462672490777571e+01 -6 -5 0
31 444 1 -1.0484000000000000e+00 1.1807657625270211e+01 1.9802013701976151e+01 8.4625196630888428e+00 -8 -2 0
33 444 2 5.2420000000000000e-01 1.2753898872303322e+01 1.9937416476384609e+01 8.4122656411543630e+00 -8 -2 0
32 444 2 5.2420000000000000e-01 1.1710220418204237e+01 1.8905063764890095e+01 8.7822373264808586e+00 -8 -2 0
521 444 2 5.2420000000000000e-01 1.3744393692373420e+01 1.7359117523736867e+01 7.7145763301149799e+00 12 -4 0
243 444 2 5.2420000000000000e-01 1.0348397280285687e+01 2.0732308723781355e+01 8.8801859938780989e+00 15 6 0
52 444 1 -1.0484000000000000e+00 1.4454417120866335e+01 2.0388503154728379e+01 8.6706409945430138e+00 -4 0 0
520 444 1 -1.0484000000000000e+00 1.2903864044376373e+01 1.7469931886332155e+01 8.1589433928708868e+00 12 -4 0
867 444 2 5.2420000000000000e-01 7.5169093168550205e+00 2.0372387948834579e+01 8.7460755238877219e+00 0 -7 0
54 444 2 5.2420000000000000e-01 1.4790556150646495e+01 1.9492314616819318e+01 8.6800529073482995e+00 -4 0 0
1413 444 2 5.2420000000000000e-01 1.1214757421631774e+01 1.8011882846190279e+01 1.7309808052807419e+01 7 -3 0
858 444 2 5.2420000000000000e-01 1.3599747825557554e+01 1.8419895798686159e+01 1.1947292559727975e+01 2 0 0
1541 444 2 5.2420000000000000e-01 9.5451676403875449e+00 2.0634366762058360e+01 1.6570375691976530e+01 -2 9 0
767 444 2 5.2420000000000000e-01 1.1601362404482785e+01 2.1109417885805126e+01 1.5858209217153117e+01 2 8 0
1864 444 1 -1.0484000000000000e+00 1.2950531809886169e+01 1.9276462974535022e+01 1.3373993654278905e+01 0 7 0
1489 444 1 -1.0484000000000000e+00 9.6955833479408486e+00 1.8352272053630763e+01 1.2994185490528800e+01 -5 5 0
1490 444 2 5.2420000000000000e-01 1.0380170997988102e+01 1.8836657813375464e+01 1.2532728594239279e+01 -5 5 0
1865 444 2 5.2420000000000000e-01 1.3065639430346772e+01 1.8781433198795277e+01 1.4185121433255363e+01 0 7 0
1491 444 2 5.2420000000000000e-01 9.1629092659937363e+00 1.7967692700128126e+01 1.2298061170335979e+01 -5 5 0
1436 444 2 5.2420000000000000e-01 1.4220822596830322e+01 1.9094234306795531e+01 1.6850462986514660e+01 3 0 0
241 444 1 -1.0484000000000000e+00 9.4973102923841779e+00 2.0966052176317458e+01 9.2506547629604299e+00 15 6 0
1328 444 2 5.2420000000000000e-01 8.3864863006155144e+00 1.9740447797635515e+01 1.3672818927246780e+01 -3 -1 0
724 444 1 -1.0484000000000000e+00 8.5286799306040617e+00 1.8822538590960601e+01 1.6486789368819732e+01 3 1 0
178 444 1 -1.0484000000000000e+00 1.0629720751211478e+01 2.1079280353474356e+01 1.1818627352536867e+01 1 -6 0
856 444 1 -1.0484000000000000e+00 1.3653822614297100e+01 1.7783510639373986e+01 1.1234325016188610e+01 2 0 0
179 444 2 5.2420000000000000e-01 1.0166499821457402e+01 2.0715920724447045e+01 1.1063889762720512e+01 1 -6 0
1435 444 1 -1.0484000000000000e+00 1.4124450334533398e+01 1.8637801016860244e+01 1.6014632209841945e+01 3 0 0
1437 444 2 5.2420000000000000e-01 1.3296394829780921e+01 1.8164224266102572e+01 1.6093885220091639e+01 3 0 0
2905 444 1 -1.0484000000000000e+00 7.9526241006171663e+00 1.7186918042137183e+01 1.1200088030172969e+01 4 -8 0
1540 444 1 -1.0484000000000000e+00 1.0128036316341520e+01 2.1219624291951995e+01 1.7054081384259579e+01 -2 9 0
1866 444 2 5.2420000000000000e-01 1.3761320004779710e+01 1.9776670717910953e+01 1.3281005057744864e+01 0 7 0
1327 444 1 -1.0484000000000000e+00 7.5586483429510487e+00 1.9920210714877754e+01 1.4118467729957977e+01 -3 -1 0
1412 444 2 5.2420000000000000e-01 1.0636937240871829e+01 1.7328586433035401e+01 1.6088691498786421e+01 7 -3 0
766 444 1 -1.0484000000000000e+00 1.2232719104115180e+01 2.1271240550832747e+01 1.5157185219745413e+01 2 8 0
1411 444 1 -1.0484000000000000e+00 1.1406314476384996e+01 1.7809207810569632e+01 1.6394132606276411e+01 7 -3 0
768 444 2 5.2420000000000000e-01 1.2106344113863695e+01 2.0543975078834983e+01 1.4547803107652346e+01 2 8 0
857 444 2 5.2420000000000000e-01 1.4226595271789508e+01 1.8195741450424350e+01 1.0587618249881331e+01 2 0 0
726 444 2 5.2420000000000000e-01 8.2621602045132967e+00 1.8961906156681788e+01 1.5578067053701403e+01 3 1 0
725 444 2 5.2420000000000000e-01 7.7151900941046305e+00 1.8614235608593777e+01 1.6946221002268203e+01 3 1 0
2099 444 2 5.2420000000000000e-01 1.4469033400247174e+01 2.0876972296885612e+01 1.5848181778661347e+01 1 9 0
2508 444 2 5.2420000000000000e-01 9.4933482340432498e+00 1.7144765362716807e+01 1.4518387205373285e+01 4 -1 0
278 444 2 5.2420000000000000e-01 1.3477315668037107e+01 2.1049696832190467e+01 1.0359063470285797e+01 -5 -1 0
2189 444 2 5.2420000000000000e-01 1.4108664322686298e+01 2.0293417581747526e+01 2.5430878305183157e+01 5 0 0
184 444 1 -1.0484000000000000e+00 8.4587011152155025e+00 1.9566107562258708e+01 2.3773455604139144e+01 1 0 0
186 444 2 5.2420000000000000e-01 7.5480143620554214e+00 1.9603020151713103e+01 2.4065894065617137e+01 1 0 0
2679 444 2 5.2420000000000000e-01 1.1874698718772416e+01 2.0410807627220198e+01 2.1188419393551079e+01 0 2 0
606 444 2 5.2420000000000000e-01 1.0238008651294972e+01 1.9403156046501856e+01 1.9552178702739596e+01 0 4 0
185 444 2 5.2420000000000000e-01 8.6533177088869753e+00 1.8630914347377242e+01 2.3712040975892148e+01 1 0 0
2892 444 2 5.2420000000000000e-01 1.1093988635958810e+01 2.1154894589362012e+01 2.3962352138003158e+01 1 -4 0
2241 444 2 5.2420000000000000e-01 9.1788155152685551e+00 2.0118049339646923e+01 2.1891451436341747e+01 0 -6 0
2239 444 1 -1.0484000000000000e+00 9.1871383242029641e+00 2.0436942716469321e+01 2.0988971430105838e+01 0 -6 0
2891 444 2 5.2420000000000000e-01 1.2299629463300940e+01 2.0247088481181017e+01 2.3843129923207577e+01 1 -4 0
2667 444 2 5.2420000000000000e-01 1.1720618666810568e+01 1.8776234055388709e+01 2.5579614463880855e+01 0 9 0
605 444 2 5.2420000000000000e-01 1.0435807626029854e+01 1.9627100798340308e+01 1.8068055867971090e+01 0 4 0
2665 444 1 -1.0484000000000000e+00 1.2145103533934336e+01 1.9547987929005881e+01 2.5954368476890838e+01 0 9 0
2678 444 2 5.2420000000000000e-01 1.1920759397037376e+01 2.0221043676336048e+01 1.9687165226318559e+01 0 2 0
741 444 2 5.2420000000000000e-01 9.3254465743180734e+00 2.1012288373328470e+01 2.4436964793931352e+01 1 0 0
1472 444 2 5.2420000000000000e-01 1.4290338513187571e+01 2.0717745008386949e+01 1.8868897694296212e+01 0 0 0
604 444 1 -1.0484000000000000e+00 1.0747348647428991e+01 1.9097124135240772e+01 1.8801745188707105e+01 0 4 0
2188 444 1 -1.0484000000000000e+00 1.4807859103621876e+01 2.0379043151410876e+01 2.4782782984624742e+01 5 0 0
2677 444 1 -1.0484000000000000e+00 1.2136079404046225e+01 2.0847769469670325e+01 2.0377878535987566e+01 0 2 0
2890 444 1 -1.0484000000000000e+00 1.1843796142236762e+01 2.0962307811375759e+01 2.3399384988752288e+01 1 -4 0
2583 444 2 5.2420000000000000e-01 7.4123190224565167e+00 2.0773304932073849e+01 2.0731784443886824e+01 -3 -4 0
1100 444 2 5.2420000000000000e-01 9.7938917964560908e+00 1.7111943803631931e+01 2.5117648340660459e+01 4 5 0
572 444 2 5.2420000000000000e-01 1.4702196116363938e+01 1.8529519050168851e+01 2.8288856219732374e+01 1 -2 0
358 444 1 -1.0484000000000000e+00 1.0144744769309794e+01 1.9525177917039752e+01 2.8682680437529086e+01 9 3 0
1712 444 2 5.2420000000000000e-01 9.3113376086267454e+00 1.8657288294770154e+01 3.4037147462974453e+01 -3 -1 0
359 444 2 5.2420000000000000e-01 9.9676436687566436e+00 1.9757881092490507e+01 2.9594117267571981e+01 9 3 0
1514 444 2 5.2420000000000000e-01 1.2795097283712366e+01 1.9532787959513314e+01 3.1391541185631663e+01 6 2 0
2821 444 1 -1.0484000000000000e+00 8.8853691735472751e+00 2.0112522864377148e+01 3.1174299809980827e+01 10 4 0
573 444 2 5.2420000000000000e-01 1.3543240201290375e+01 1.9333100872527346e+01 2.8839286622910645e+01 1 -2 0
1018 444 1 -1.0484000000000000e+00 1.3627251656606356e+01 2.0763519074806865e+01 3.0606112597429686e+01 -7 -6 0
728 444 2 5.2420000000000000e-01 1.2458462149257580e+01 1.9721425371754083e+01 3.5204791975270901e+01 14 2 0
2823 444 2 5.2420000000000000e-01 8.8549320645830054e+00 1.9951519194598351e+01 3.2117371610152610e+01 10 4 0
1917 444 2 5.2420000000000000e-01 1.3815845986788171e+01 1.8105946619641603e+01 3.2347813595431788e+01 -1 6 0
1020 444 2 5.2420000000000000e-01 1.4519771778888074e+01 2.0435221645923317e+01 3.0715019029199524e+01 -7 -6 0
729 444 2 5.2420000000000000e-01 1.2512364287278688e+01 2.0892242039752261e+01 3.4246575850862136e+01 14 2 0
2666 444 2 5.2420000000000000e-01 1.2619939631849567e+01 1.9214748026075334e+01 2.6715758309881160e+01 0 9 0
1515 444 2 5.2420000000000000e-01 1.1937001259522738e+01 1.9453624081722147e+01 3.2636250100221631e+01 6 2 0
1381 444 1 -1.0484000000000000e+00 7.6427665454356397e+00 2.0054221200802310e+01 2.7123986531907121e+01 3 8 0
727 444 1 -1.0484000000000000e+00 1.1961038306398203e+01 2.0156206965778082e+01 3.4512140089120983e+01 14 2 0
1711 444 1 -1.0484000000000000e+00 9.4177029967381127e+00 1.9588262874918623e+01 3.3841686405149886e+01 -3 -1 0
1400 444 2 5.2420000000000000e-01 1.0457683354570511e+01 2.1167588929025232e+01 2.7923758269257917e+01 0 -5 0
1713 444 2 5.2420000000000000e-01 1.0349448506356918e+01 1.9757763576994225e+01 3.3980796900625613e+01 -3 -1 0
1382 444 2 5.2420000000000000e-01 8.3334073976094025e+00 1.9723318213409804e+01 2.7698226077926716e+01 3 8 0
1513 444 1 -1.0484000000000000e+00 1.2290536991528224e+01 1.8919002183799083e+01 3.1925318397800542e+01 6 2 0
360 444 2 5.2420000000000000e-01 1.0698552062630824e+01 1.8746352471917934e+01 2.8737099736119639e+01 9 3 0
1915 444 1 -1.0484000000000000e+00 1.4676344550334644e+01 1.7728277711242225e+01 3.2529858738325601e+01 -1 6 0
571 444 1 -1.0484000000000000e+00 1.4012005640495477e+01 1.9139114585217051e+01 2.8027584306989105e+01 1 -2 0
1383 444 2 5.2420000000000000e-01 7.7181081798825879e+00 2.1006675204360597e+01 2.7182185853629946e+01 3 8 0
2822 444 2 5.2420000000000000e-01 8.4985061359747434e+00 1.9328593145674269e+01 3.0784397644664168e+01 10 4 0
1632 444 2 5.2420000000000000e-01 7.9873122874744400e+00 1.7168496741078062e+01 3.1483177782928031e+01 -2 9 0
2734 444 1 -1.0484000000000000e+00 1.1824954471233726e+01 1.7321234756754063e+01 2.9039276423221533e+01 -3 3 0
2735 444 2 5.2420000000000000e-01 1.2757489842173321e+01 1.7344008035282865e+01 2.9253964604266972e+01 -3 3 0
2174 444 2 5.2420000000000000e-01 1.4031557033126058e+01 2.1196162199139259e+01 3.7626495203726208e+01 -9 4 0
1385 444 2 5.2420000000000000e-01 1.3308540109278594e+01 1.9674786503872372e+01 3.7358495381311506e+01 1 1 0
1386 444 2 5.2420000000000000e-01 1.4098437947802347e+01 1.8567541520400759e+01 3.6693690710178593e+01 1 1 0
1384 444 1 -1.0484000000000000e+00 1.3249376210923636e+01 1.9009027821467715e+01 3.6673296825090425e+01 1 1 0
2173 444 1 -1.0484000000000000e+00 1.3956863192292980e+01 2.0817208929528302e+01 3.8502307663594912e+01 -9 4 0
2471 444 2 5.2420000000000000e-01 1.2322008765055271e+01 1.7210915355483319e+01 3.6502080677664239e+01 -3 3 0
2710 444 1 -1.0484000000000000e+00 1.0343957711105737e+01 2.4970064041314533e+01 8.8621072539756316e+00 3 -2 0
242 444 2 5.2420000000000000e-01 9.2379890753872029e+00 2.1756096006360952e+01 8.7765077541120124e+00 15 6 0
1774 444 1 -1.0484000000000000e+00 1.3475464309792725e+01 2.3987775627356250e+01 9.4189577789655434e+00 6 -2 0
1775 444 2 5.2420000000000000e-01 1.3409330653401026e+01 2.3140703569364060e+01 9.8597833373341057e+00 6 -2 0
1776 444 2 5.2420000000000000e-01 1.2574841012143342e+01 2.4203182178287776e+01 9.1766569770848481e+00 6 -2 0
2711 444 2 5.2420000000000000e-01 9.5726874276215792e+00 2.4633797688459964e+01 9.3185060634734072e+00 3 -2 0
400 444 1 -1.0484000000000000e+00 9.3605960816902112e+00 2.3295129194212908e+01 1.2672084074388977e+01 0 7 0
402 444 2 5.2420000000000000e-01 9.9319237826855638e+00 2.2527234899989487e+01 1.2659638969573797e+01 0 7 0
401 444 2 5.2420000000000000e-01 8.8829115283740574e+00 2.3225477329771959e+01 1.3498642000674950e+01 0 7 0
2724 444 2 5.2420000000000000e-01 1.2602350978602477e+01 2.4095798453859171e+01 1.6662144819057794e+01 1 -4 0
2395 444 1 -1.0484000000000000e+00 7.9892167438163568e+00 2.2371111132600269e+01 1.4927612996463381e+01 5 -6 0
2722 444 1 -1.0484000000000000e+00 1.2696829715488612e+01 2.4129753648381207e+01 1.5710224247594381e+01 1 -4 0
2606 444 2 5.2420000000000000e-01 8.4903514352373843e+00 2.3717213869945720e+01 1.1124663392392067e+01 -10 2 0
980 444 2 5.2420000000000000e-01 1.0030853912780977e+01 2.4510215131151362e+01 1.3561654290567944e+01 -1 -8 0
2723 444 2 5.2420000000000000e-01 1.2691183860582102e+01 2.3212800692325342e+01 1.5435638011081148e+01 1 -4 0
2628 444 2 5.2420000000000000e-01 9.0783916769088933e+00 2.3541162227434270e+01 1.6240682025248439e+01 -4 8 0
2605 444 1 -1.0484000000000000e+00 8.1362662695240395e+00 2.4248739420627341e+01 1.0411686427163733e+01 -10 2 0
2607 444 2 5.2420000000000000e-01 8.1523940142246953e+00 2.5144333652829697e+01 1.0749151592643317e+01 -10 2 0
981 444 2 5.2420000000000000e-01 1.1109077579550760e+01 2.4724011869068466e+01 1.4602626633510527e+01 -1 -8 0
2626 444 1 -1.0484000000000000e+00 9.0103458922516442e+00 2.3890825174789246e+01 1.7129129320455945e+01 -4 8 0
2627 444 2 5.2420000000000000e-01 8.0809125386535392e+00 2.4092654796277429e+01 1.7237069061971944e+01 -4 8 0
2700 444 2 5.2420000000000000e-01 1.4343521239028586e+01 2.4505839464751912e+01 1.4701516175434360e+01 3 -2 0
979 444 1 -1.0484000000000000e+00 1.0402929386742311e+01 2.5175645975767559e+01 1.4140442651868922e+01 -1 -8 0
279 444 2 5.2420000000000000e-01 1.3964047811696441e+01 2.1897075068056509e+01 1.1515324546770774e+01 -5 -1 0
2396 444 2 5.2420000000000000e-01 7.8435871272016380e+00 2.1496078013483057e+01 1.4567972738199444e+01 5 -6 0
277 444 1 -1.0484000000000000e+00 1.3220305902945935e+01 2.1777895124017785e+01 1.0924665697422800e+01 -5 -1 0
1542 444 2 5.2420000000000000e-01 9.5761148233330857e+00 2.1964269280125283e+01 1.7293077147102718e+01 -2 9 0
2712 444 2 5.2420000000000000e-01 1.0693018116813500e+01 2.5644087210415357e+01 9.4452725386756047e+00 3 -2 0
1479 444 2 5.2420000000000000e-01 1.4780570154999092e+01 2.1882045722037191e+01 1.3811407810380468e+01 -6 2 0
149 444 2 5.2420000000000000e-01 1.3797910781153318e+01 2.5495559613253324e+01 1.0401199219553609e+01 -4 7 0
2559 444 2 5.2420000000000000e-01 1.1084121477267937e+01 2.5402194701995931e+01 1.2288176514531930e+01 7 2 0
180 444 2 5.2420000000000000e-01 1.1411664255963366e+01 2.1487249428757991e+01 1.1446660741548868e+01 1 -6 0
1773 444 2 5.2420000000000000e-01 9.9590622300919875e+00 2.3573919604705498e+01 2.5120141302124996e+01 -6 1 0
1102 444 1 -1.0484000000000000e+00 1.4085141406111413e+01 2.2673310048466004e+01 1.9652315876221085e+01 -9 -3 0
1772 444 2 5.2420000000000000e-01 1.0338695433785901e+01 2.4712735832986986e+01 2.6042568522199240e+01 -6 1 0
2579 444 2 5.2420000000000000e-01 8.7340520511008712e+00 2.5055449314596220e+01 2.4121132619609252e+01 -9 0 0
1012 444 1 -1.0484000000000000e+00 1.2548230993792538e+01 2.4398073349781551e+01 1.8540744954751560e+01 0 1 0
1852 444 1 -1.0484000000000000e+00 1.4486764231854050e+01 2.5622495981188532e+01 2.3627015189145293e+01 0 2 0
1771 444 1 -1.0484000000000000e+00 1.0226455329866605e+01 2.4493010494021000e+01 2.5117714410589848e+01 -6 1 0
1894 444 1 -1.0484000000000000e+00 1.0151746863730537e+01 2.4401342540305489e+01 2.0068727449247660e+01 5 -3 0
1895 444 2 5.2420000000000000e-01 9.5427271718132793e+00 2.4047126705040494e+01 2.0716692616647038e+01 5 -3 0
197 444 2 5.2420000000000000e-01 1.2119603091841153e+01 2.3722308965934161e+01 2.3836282097938877e+01 -5 1 0
198 444 2 5.2420000000000000e-01 1.2852885725290184e+01 2.2403004476993281e+01 2.3953019174358801e+01 -5 1 0
1896 444 2 5.2420000000000000e-01 9.8423733215900491e+00 2.4052536504978715e+01 1.9232752188944900e+01 5 -3 0
196 444 1 -1.0484000000000000e+00 1.2965528963430620e+01 2.3345283301124912e+01 2.4078135231261399e+01 -5 1 0
1132 444 1 -1.0484000000000000e+00 8.8046516776634611e+00 2.3112610619208905e+01 2.2261491861355655e+01 -5 5 0
1134 444 2 5.2420000000000000e-01 9.2825865075419056e+00 2.2628188149963314e+01 2.2934652730124572e+01 -5 5 0
1613 444 2 5.2420000000000000e-01 1.3172380959399318e+01 2.2991266401402619e+01 2.5896556583325452e+01 -6 3 0
1133 444 2 5.2420000000000000e-01 8.0737311261352875e+00 2.3516173219372000e+01 2.2729599893395836e+01 -5 5 0
1013 444 2 5.2420000000000000e-01 1.1890267012078715e+01 2.4454752616024493e+01 1.9233639965159846e+01 0 1 0
1854 444 2 5.2420000000000000e-01 1.3794853544149058e+01 2.4965067149138008e+01 2.3554359429145403e+01 0 2 0
1104 444 2 5.2420000000000000e-01 1.3460291501408365e+01 2.2015841507094667e+01 1.9958142055915438e+01 -9 -3 0
2578 444 1 -1.0484000000000000e+00 7.7804081773859615e+00 2.5063678063128471e+01 2.4039110143001285e+01 -9 0 0
1103 444 2 5.2420000000000000e-01 1.3571472315538260e+01 2.3245911001972388e+01 1.9082663207083659e+01 -9 -3 0
1014 444 2 5.2420000000000000e-01 1.3203584079261359e+01 2.5054216525717095e+01 1.8777856195232939e+01 0 1 0
740 444 2 5.2420000000000000e-01 9.9698026979701240e+00 2.1555064351186573e+01 2.5694778278945613e+01 1 0 0
739 444 1 -1.0484000000000000e+00 9.7086816723798908e+00 2.1806652758243438e+01 2.4808916469654701e+01 1 0 0
2580 444 2 5.2420000000000000e-01 7.4751038407903687e+00 2.5503991394454840e+01 2.4832297078896453e+01 -9 0 0
406 444 1 -1.0484000000000000e+00 1.4242696977383446e+01 2.5586112442566407e+01 2.6272259451736343e+01 7 -4 0
2240 444 2 5.2420000000000000e-01 9.2964537556678266e+00 2.1384402270424850e+01 2.1070228481490940e+01 0 -6 0
638 444 2 5.2420000000000000e-01 1.4205696802624285e+01 2.1990692572915137e+01 3.5323885937086082e+01 4 5 0
1019 444 2 5.2420000000000000e-01 1.3729836774350508e+01 2.1710382389122149e+01 3.0510414525432811e+01 -7 -6 0
1293 444 2 5.2420000000000000e-01 1.3037029246449448e+01 2.4969512706619845e+01 2.9772454934934775e+01 3 7 0
1536 444 2 5.2420000000000000e-01 1.4097298507769485e+01 2.2345663057424069e+01 3.2931035314860743e+01 -2 4 0
48 444 2 5.2420000000000000e-01 9.9073937930086622e+00 2.2431339424585861e+01 3.4890121955856770e+01 12 1 0
2299 444 1 -1.0484000000000000e+00 9.2436845597081803e+00 2.5339610734823182e+01 3.0469452124783302e+01 -4 0 0
1612 444 1 -1.0484000000000000e+00 1.3158420131786926e+01 2.2749953872319484e+01 2.6822734720634365e+01 -6 3 0
631 444 1 -1.0484000000000000e+00 7.6021133118235404e+00 2.2839900494887591e+01 2.8115647015607426e+01 -2 -3 0
1614 444 2 5.2420000000000000e-01 1.3941416582112151e+01 2.2212557547482973e+01 2.6942546182494667e+01 -6 3 0
789 444 2 5.2420000000000000e-01 7.9097461505768081e+00 2.4922232274379461e+01 3.3257097300594772e+01 0 -3 0
407 444 2 5.2420000000000000e-01 1.4292478086540196e+01 2.4886014865583647e+01 2.6923119095669772e+01 7 -4 0
787 444 1 -1.0484000000000000e+00 8.6625319714483666e+00 2.4976531789294121e+01 3.3845822259972209e+01 0 -3 0
468 444 2 5.2420000000000000e-01 1.2419229011832350e+01 2.3802268540671609e+01 3.1521412361184211e+01 4 6 0
467 444 2 5.2420000000000000e-01 1.1546950755365552e+01 2.3328487690276717e+01 3.0378364609839167e+01 4 6 0
633 444 2 5.2420000000000000e-01 7.4884554860638541e+00 2.3772946653326446e+01 2.8296586314482077e+01 -2 -3 0
1401 444 2 5.2420000000000000e-01 1.1373415318306435e+01 2.2226962353075404e+01 2.7348381332655386e+01 0 -5 0
1399 444 1 -1.0484000000000000e+00 1.0457271937144869e+01 2.1950762845106823e+01 2.7373421257726953e+01 0 -5 0
1522 444 1 -1.0484000000000000e+00 1.1887188367629435e+01 2.4620416149187516e+01 3.3407005444996685e+01 3 -7 0
1524 444 2 5.2420000000000000e-01 1.2214345051487829e+01 2.5375774267500567e+01 3.3895507877832664e+01 3 -7 0
1534 444 1 -1.0484000000000000e+00 1.3499185213195867e+01 2.2428490711076485e+01 3.3673755214812019e+01 -2 4 0
46 444 1 -1.0484000000000000e+00 9.3652851231208967e+00 2.2327965142873072e+01 3.4108032299227951e+01 12 1 0
788 444 2 5.2420000000000000e-01 8.9093205581259109e+00 2.4065404792950204e+01 3.4004488131907770e+01 0 -3 0
632 444 2 5.2420000000000000e-01 8.5479589407599690e+00 2.2727226206076573e+01 2.8021238001017274e+01 -2 -3 0
1377 444 2 5.2420000000000000e-01 9.9278189507390788e+00 2.2901041684884678e+01 3.2128315358550253e+01 -1 1 0
1376 444 2 5.2420000000000000e-01 9.2061655573686938e+00 2.1985824923591796e+01 3.1162142358055604e+01 -1 1 0
2300 444 2 5.2420000000000000e-01 9.4972399028487526e+00 2.4443493084586482e+01 3.0690620109388675e+01 -4 0 0
1375 444 1 -1.0484000000000000e+00 9.8433216053294039e+00 2.2699329659656279e+01 3.1196432957725040e+01 -1 1 0
466 444 1 -1.0484000000000000e+00 1.2213823470239445e+01 2.3977355727275985e+01 3.0603052265154489e+01 4 6 0
1535 444 2 5.2420000000000000e-01 1.3196534883897558e+01 2.3335886226374814e+01 3.3638127983100453e+01 -2 4 0
1523 444 2 5.2420000000000000e-01 1.0940999869957878e+01 2.4757053404662518e+01 3.3359157319592313e+01 3 -7 0
1291 444 1 -1.0484000000000000e+00 1.3627304488417327e+01 2.5543591557275434e+01 2.9284355812939499e+01 3 7 0
47 444 2 5.2420000000000000e-01 9.2616067453648814e+00 2.1381325305327053e+01 3.4011301706554349e+01 12 1 0
637 444 1 -1.0484000000000000e+00 1.4519628430571297e+01 2.2021932261385185e+01 3.6227602100542619e+01 4 5 0
176 444 2 5.2420000000000000e-01 1.3927729613962574e+01 2.5365484626069886e+01 3.5818415833373656e+01 2 0 0
639 444 2 5.2420000000000000e-01 1.4559403654343628e+01 2.2955389333048426e+01 3.6435707393321806e+01 4 5 0
175 444 1 -1.0484000000000000e+00 1.4568775399559788e+01 2.4840243070985764e+01 3.6297387641976329e+01 2 0 0
2175 444 2 5.2420000000000000e-01 1.3439290134372978e+01 2.1453487265614619e+01 3.8995764984041720e+01 -9 4 0
1308 444 2 5.2420000000000000e-01 8.2876935884159018e+00 2.8605022237247169e+01 1.0631341406098967e+01 1 -7 0
1605 444 2 5.2420000000000000e-01 1.3470775711005571e+01 2.7965100782063487e+01 1.0454589373482381e+01 3 3 0
1080 444 2 5.2420000000000000e-01 8.7216697397110092e+00 2.6744016979977097e+01 1.7230840216508685e+01 4 2 0
2557 444 1 -1.0484000000000000e+00 1.1193607469492671e+01 2.6096464719678096e+01 1.1638380855271940e+01 7 2 0
2558 444 2 5.2420000000000000e-01 1.2108763754168777e+01 2.6363527347631052e+01 1.1724399844440274e+01 7 2 0
2630 444 2 5.2420000000000000e-01 1.0546476615582266e+01 2.7791322778484322e+01 1.3312749230703478e+01 -3 -1 0
1128 444 2 5.2420000000000000e-01 1.0699542513298544e+01 2.7716157871275687e+01 1.6771308220082169e+01 2 3 0
2631 444 2 5.2420000000000000e-01 1.0006849424327370e+01 2.6807555513304784e+01 1.4329066215330835e+01 -3 -1 0
2629 444 1 -1.0484000000000000e+00 9.8487160526277648e+00 2.7675485750693138e+01 1.3957686476107165e+01 -3 -1 0
148 444 1 -1.0484000000000000e+00 1.3873267479291371e+01 2.6327656404370067e+01 1.0868284647028789e+01 -4 7 0
2864 444 2 5.2420000000000000e-01 1.4588821708424499e+01 2.8075952557252595e+01 1.4485764826916256e+01 3 -2 0
1567 444 1 -1.0484000000000000e+00 8.4581528093494729e+00 2.9855483813326654e+01 1.3915964142802649e+01 -1 -4 0
2942 444 2 5.2420000000000000e-01 8.4850315848729618e+00 2.6881829969061741e+01 1.2438790283704368e+01 6 1 0
2941 444 1 -1.0484000000000000e+00 8.6764746746319830e+00 2.6852637937862664e+01 1.1501384437729486e+01 6 1 0
2943 444 2 5.2420000000000000e-01 9.5884278333894457e+00 2.6566133847815387e+01 1.1451496595699702e+01 6 1 0
1127 444 2 5.2420000000000000e-01 1.1098501084780761e+01 2.8016927788841539e+01 1.5342229931648308e+01 2 3 0
1921 444 1 -1.0484000000000000e+00 1.1770965845760148e+01 2.9371422820128071e+01 1.2921305423116507e+01 -2 3 0
1603 444 1 -1.0484000000000000e+00 1.3051683048451665e+01 2.8824774230559395e+01 1.0494033806272572e+01 3 3 0
1126 444 1 -1.0484000000000000e+00 1.1293680673281036e+01 2.8254725724226116e+01 1.6248645360068142e+01 2 3 0
2863 444 1 -1.0484000000000000e+00 1.3840478304202769e+01 2.8630726666690787e+01 1.4705856560114189e+01 3 -2 0
2865 444 2 5.2420000000000000e-01 1.3565591797572958e+01 2.8330327917257982e+01 1.5572130223639830e+01 3 -2 0
1078 444 1 -1.0484000000000000e+00 9.6107715539924659e+00 2.6622869358655429e+01 1.7564088475954570e+01 4 2 0
1079 444 2 5.2420000000000000e-01 9.7176691570984151e+00 2.5673486935881073e+01 1.7623073272422040e+01 4 2 0
1306 444 1 -1.0484000000000000e+00 7.7103193013591262e+00 2.9313623132752447e+01 1.0347165085549895e+01 1 -7 0
1922 444 2 5.2420000000000000e-01 1.2507082933464662e+01 2.9176770511923241e+01 1.3501370659358630e+01 -2 3 0
1604 444 2 5.2420000000000000e-01 1.2699312985524797e+01 2.8879447418242634e+01 1.1382335015706481e+01 3 3 0
1307 444 2 5.2420000000000000e-01 8.2025538318674602e+00 2.9763488631274935e+01 9.6604639394266663e+00 1 -7 0
1569 444 2 5.2420000000000000e-01 9.0833571959551573e+00 2.9130765360206230e+01 1.3904365789310070e+01 -1 -4 0
876 444 2 5.2420000000000000e-01 1.2423912406433642e+01 2.9861231337447609e+01 8.9296003713260355e+00 -6 -5 0
1568 444 2 5.2420000000000000e-01 7.7380757470727763e+00 2.9542493732539320e+01 1.4463465876439800e+01 -1 -4 0
150 444 2 5.2420000000000000e-01 1.4809034589408284e+01 2.6528387519093375e+01 1.0851524558254679e+01 -4 7 0
2116 444 1 -1.0484000000000000e+00 9.7196375769975223e+00 2.7065532761703054e+01 2.0557990739249036e+01 5 2 0
2121 444 2 5.2420000000000000e-01 7.5303523763378806e+00 2.6623879944706093e+01 2.2823504563467694e+01 -6 5 0
2746 444 1 -1.0484000000000000e+00 1.4671611703187445e+01 2.6140969974619154e+01 1.8882634771907757e+01 4 3 0
2648 444 2 5.2420000000000000e-01 1.3646478863269767e+01 2.7255837646106961e+01 1.9376684540844607e+01 0 1 0
2647 444 1 -1.0484000000000000e+00 1.3196544471153505e+01 2.8093724169093228e+01 1.9485023232280945e+01 0 1 0
1054 444 1 -1.0484000000000000e+00 1.2422222741718707e+01 2.9800210563944763e+01 2.5279079831334752e+01 1 2 0
1799 444 2 5.2420000000000000e-01 1.0497623055455209e+01 2.8421339704081390e+01 2.2197129577862704e+01 -1 0 0
2082 444 2 5.2420000000000000e-01 8.8067483977680645e+00 2.9676551127829310e+01 2.1282027260710866e+01 8 1 0
1798 444 1 -1.0484000000000000e+00 1.0323231932243601e+01 2.9191410350370447e+01 2.2738250055867450e+01 -1 0 0
1555 444 1 -1.0484000000000000e+00 9.4869206630085472e+00 2.9101371823814759e+01 2.5278349268833356e+01 4 6 0
1556 444 2 5.2420000000000000e-01 8.9060821218505701e+00 2.8412295083305509e+01 2.5600889382067624e+01 4 6 0
1800 444 2 5.2420000000000000e-01 1.0900079210216415e+01 2.9868635199306730e+01 2.2384912449789510e+01 -1 0 0
1055 444 2 5.2420000000000000e-01 1.2790471629465385e+01 2.9808584582645508e+01 2.4395589500798966e+01 1 2 0
1056 444 2 5.2420000000000000e-01 1.1479347606374223e+01 2.9703834927511636e+01 2.5145174145410774e+01 1 2 0
1853 444 2 5.2420000000000000e-01 1.4543697781921093e+01 2.5808412148080301e+01 2.4564258845531505e+01 0 2 0
2649 444 2 5.2420000000000000e-01 1.2698398780868336e+01 2.8205086807082761e+01 1.8675281759357556e+01 0 1 0
2118 444 2 5.2420000000000000e-01 9.7157822384052128e+00 2.6108413195264227e+01 2.0546183244502220e+01 5 2 0
1557 444 2 5.2420000000000000e-01 9.5778350794092066e+00 2.8920222097309473e+01 2.4342853298943307e+01 4 6 0
2117 444 2 5.2420000000000000e-01 1.0059654702010086e+01 2.7314772080757294e+01 1.9698630284832710e+01 5 2 0
2120 444 2 5.2420000000000000e-01 7.7962599004380992e+00 2.7512038431331952e+01 2.1626690596593146e+01 -6 5 0
2646 444 2 5.2420000000000000e-01 1.2685898697072970e+01 2.7789474145250384e+01 2.6584696042503449e+01 -7 -2 0
2119 444 1 -1.0484000000000000e+00 7.4613820093196859e+00 2.7530137950974659e+01 2.2523218041411013e+01 -6 5 0
2101 444 1 -1.0484000000000000e+00 8.1693413879379246e+00 2.9426747041104178e+01 3.2551365529455119e+01 -3 -1 0
2319 444 2 5.2420000000000000e-01 1.3969673888392208e+01 2.6932035547874829e+01 3.4728044889473423e+01 0 -1 0
408 444 2 5.2420000000000000e-01 1.3712988948688594e+01 2.6265080013569158e+01 2.6690165377247350e+01 7 -4 0
1027 444 1 -1.0484000000000000e+00 9.9890227329493086e+00 2.6913634803278182e+01 2.7986412704848675e+01 -6 6 0
1506 444 2 5.2420000000000000e-01 1.4653927176767962e+01 2.5951194477287242e+01 3.0769493800052981e+01 6 1 0
622 444 1 -1.0484000000000000e+00 1.1345576357019768e+01 2.8973659310325250e+01 3.4967420317323949e+01 3 -6 0
624 444 2 5.2420000000000000e-01 1.0782753782295943e+01 2.9747800190435068e+01 3.4980403562605566e+01 3 -6 0
1504 444 1 -1.0484000000000000e+00 1.4808465636304971e+01 2.6093857224830369e+01 3.1703301635872943e+01 6 1 0
2318 444 2 5.2420000000000000e-01 1.2580787227666121e+01 2.7481935272420682e+01 3.4974012392203029e+01 0 -1 0
2645 444 2 5.2420000000000000e-01 1.1718576853016659e+01 2.7136638192576548e+01 2.7549055409453729e+01 -7 -2 0
261 444 2 5.2420000000000000e-01 1.2716204499087016e+01 2.9774492557234328e+01 3.3617057701990667e+01 2 -6 0
623 444 2 5.2420000000000000e-01 1.0779879251819093e+01 2.8271014544752557e+01 3.4647249881807085e+01 3 -6 0
2317 444 1 -1.0484000000000000e+00 1.3047329099895180e+01 2.6676951188432422e+01 3.4749129344983167e+01 0 -1 0
1505 444 2 5.2420000000000000e-01 1.3934156137054195e+01 2.6203137656432958e+01 3.2077297140080617e+01 6 1 0
1292 444 2 5.2420000000000000e-01 1.3046496755471955e+01 2.6148032176748469e+01 2.8822245339480137e+01 3 7 0
2301 444 2 5.2420000000000000e-01 1.0012753662719312e+01 2.5866910295807770e+01 3.0685601392063703e+01 -4 0 0
2172 444 2 5.2420000000000000e-01 1.0565690157829748e+01 2.7777489798536461e+01 3.1695978392802303e+01 1 -6 0
1678 444 1 -1.0484000000000000e+00 9.7658331830759444e+00 2.7327612803004644e+01 3.3347018961652545e+01 -2 -2 0
1679 444 2 5.2420000000000000e-01 9.2680015433535416e+00 2.6555996359783627e+01 3.3617214145560936e+01 -2 -2 0
2617 444 1 -1.0484000000000000e+00 1.1943460266873670e+01 2.9904501400111496e+01 2.9298856144041032e+01 -1 -1 0
2644 444 1 -1.0484000000000000e+00 1.2616792956485579e+01 2.7460352843780115e+01 2.7480874298074884e+01 -7 -2 0
1680 444 2 5.2420000000000000e-01 9.1037773132984832e+00 2.7940421864075887e+01 3.3027049729661790e+01 -2 -2 0
2171 444 2 5.2420000000000000e-01 1.1685636655089910e+01 2.8319459580568729e+01 3.0833490789322674e+01 1 -6 0
1028 444 2 5.2420000000000000e-01 1.0027285244511171e+01 2.7756403333657751e+01 2.8438639896409668e+01 -6 6 0
2618 444 2 5.2420000000000000e-01 1.2416840213835593e+01 2.9787461624256132e+01 2.8475178211227352e+01 -1 -1 0
2170 444 1 -1.0484000000000000e+00 1.1081115290089459e+01 2.7581639102324679e+01 3.0913538743279677e+01 1 -6 0
1029 444 2 5.2420000000000000e-01 9.5133562001470704e+00 2.6340191822148796e+01 2.8587359502997550e+01 -6 6 0
874 444 1 -1.0484000000000000e+00 1.2092886058092123e+01 3.0546154065898520e+01 8.3486225288694964e+00 -6 -5 0
2849 444 2 5.2420000000000000e-01 1.1809824985042752e+01 3.2272193219361100e+01 8.5213628279379989e+00 1 -5 0
2850 444 2 5.2420000000000000e-01 1.2273496445007805e+01 3.3707656537622618e+01 8.6492274364448480e+00 1 -5 0
2848 444 1 -1.0484000000000000e+00 1.1517561758248672e+01 3.3140105398260914e+01 8.7998276347714537e+00 1 -5 0
875 444 2 5.2420000000000000e-01 1.1702795201097951e+01 3.0070788884442788e+01 7.6150769344607907e+00 -6 -5 0
202 444 1 -1.0484000000000000e+00 9.0939205715759339e+00 3.1586773579699003e+01 9.4885338170630646e+00 -1 -8 0
203 444 2 5.2420000000000000e-01 8.9887629580649868e+00 3.1881919611229552e+01 1.0393002000131942e+01 -1 -8 0
204 444 2 5.2420000000000000e-01 9.9819040339436373e+00 3.1853553822377727e+01 9.2507403837296902e+00 -1 -8 0
2014 444 1 -1.0484000000000000e+00 9.4700620032102272e+00 3.2265962583864571e+01 1.4648754664377330e+01 0 0 0
1357 444 1 -1.0484000000000000e+00 1.2015525410944072e+01 3.2253906325240528e+01 1.3071441926251685e+01 -3 3 0
1359 444 2 5.2420000000000000e-01 1.1558365923003427e+01 3.2865188164431608e+01 1.2493885316099636e+01 -3 3 0
2015 444 2 5.2420000000000000e-01 1.0364633078244402e+01 3.2099232451262772e+01 1.4351810764399726e+01 0 0 0
1358 444 2 5.2420000000000000e-01 1.2648201223997415e+01 3.1814442511664847e+01 1.2503265120513118e+01 -3 3 0
1923 444 2 5.2420000000000000e-01 1.1614480513294728e+01 3.0308467632203978e+01 1.3038316895712889e+01 -2 3 0
1263 444 2 5.2420000000000000e-01 1.2094849307086898e+01 3.3609176829490032e+01 1.6540447029123442e+01 3 -4 0
2795 444 2 5.2420000000000000e-01 1.2648183292913261e+01 3.3443899084440964e+01 1.4584243606791942e+01 4 -2 0
1967 444 2 5.2420000000000000e-01 1.4560278668077331e+01 3.0199249785100275e+01 1.5658374469187498e+01 3 -2 0
1010 444 2 5.2420000000000000e-01 1.1175210954432423e+01 3.0021102978242656e+01 1.7356448768407592e+01 -4 -1 0
1495 444 1 -1.0484000000000000e+00 1.3840336713840127e+01 3.1123087599332319e+01 1.1752650013476490e+01 -2 -7 0
2182 444 1 -1.0484000000000000e+00 7.6638549019992173e+00 3.2897985159134407e+01 1.6434720563060957e+01 4 -5 0
1261 444 1 -1.0484000000000000e+00 1.1501458382256438e+01 3.3288455904749384e+01 1.7219606217338271e+01 3 -4 0
1011 444 2 5.2420000000000000e-01 1.1287567316882379e+01 3.1486896436054725e+01 1.7718004707946825e+01 -4 -1 0
1796 444 2 5.2420000000000000e-01 1.1232782033157836e+01 3.3691753997160475e+01 1.0628864782477534e+01 -11 -4 0
1797 444 2 5.2420000000000000e-01 9.8551957635285401e+00 3.3924438198336439e+01 1.1211968230524963e+01 -11 -4 0
1496 444 2 5.2420000000000000e-01 1.3965848365051233e+01 3.0430522361071400e+01 1.1103933320320404e+01 -2 -7 0
2016 444 2 5.2420000000000000e-01 9.0543148995689915e+00 3.1403779875811498e+01 1.4653982163585171e+01 0 0 0
1795 444 1 -1.0484000000000000e+00 1.0786794456520571e+01 3.3985812261863714e+01 1.1423129750174681e+01 -11 -4 0
2184 444 2 5.2420000000000000e-01 7.8666281323011820e+00 3.2467147933080582e+01 1.7265078479960390e+01 4 -5 0
1262 444 2 5.2420000000000000e-01 1.0737189760494907e+01 3.3861752870598011e+01 1.7160818850831284e+01 3 -4 0
2183 444 2 5.2420000000000000e-01 8.3639489580620854e+00 3.2621245053942602e+01 1.5843522478183576e+01 4 -5 0
835 444 1 -1.0484000000000000e+00 7.8107854231871334e+00 3.3409183816494433e+01 1.1474817567922264e+01 -2 0 0
1497 444 2 5.2420000000000000e-01 1.4666199270309020e+01 3.1607006160932748e+01 1.1749913685939452e+01 -2 -7 0
1741 444 1 -1.0484000000000000e+00 1.4206821824221940e+01 3.1371405361300035e+01 1.8912034877351985e+01 -8 -1 0
889 444 1 -1.0484000000000000e+00 1.2523611607150873e+01 3.3319958300799854e+01 2.1399923758558579e+01 -7 -3 0
891 444 2 5.2420000000000000e-01 1.1891433780914507e+01 3.3516889141569884e+01 2.2091156665913662e+01 -7 -3 0
1742 444 2 5.2420000000000000e-01 1.4262660523452697e+01 3.1261288135441415e+01 1.7962830713308229e+01 -8 -1 0
2080 444 1 -1.0484000000000000e+00 8.0889578664667585e+00 3.0225644949134963e+01 2.0966583492917003e+01 8 1 0
1743 444 2 5.2420000000000000e-01 1.3899031638404574e+01 3.0524236180295180e+01 1.9234217387113549e+01 -8 -1 0
26 444 2 5.2420000000000000e-01 1.4169573640290093e+01 3.1374102552909662e+01 2.2893718010860084e+01 2 1 0
1422 444 2 5.2420000000000000e-01 9.1114814644300370e+00 3.0718269499055356e+01 2.6041541537067243e+01 0 2 0
499 444 1 -1.0484000000000000e+00 1.4647828692558589e+01 3.4045311405622641e+01 1.9279028742084012e+01 2 -5 0
1009 444 1 -1.0484000000000000e+00 1.1091384712733111e+01 3.0627893300484235e+01 1.8091983333964134e+01 -4 -1 0
1214 444 2 5.2420000000000000e-01 9.3358975888390408e+00 3.2749266062921009e+01 2.2564014064872648e+01 -4 5 0
743 444 2 5.2420000000000000e-01 1.1459968731544087e+01 3.3704456881076005e+01 2.4201095320069133e+01 6 4 0
1213 444 1 -1.0484000000000000e+00 8.4474254857439810e+00 3.2444202229575509e+01 2.2747824108697870e+01 -4 5 0
1794 444 2 5.2420000000000000e-01 8.4261528476410064e+00 3.0951498636975820e+01 1.9394238931958604e+01 1 -9 0
2910 444 2 5.2420000000000000e-01 1.1654776874352720e+01 3.1834121870409820e+01 2.0925898954630547e+01 0 1 0
2908 444 1 -1.0484000000000000e+00 1.1467968406935750e+01 3.0916166684921269e+01 2.1122607801687195e+01 0 1 0
500 444 2 5.2420000000000000e-01 1.4546712299987126e+01 3.3093630069144872e+01 1.9296649372102152e+01 2 -5 0
1793 444 2 5.2420000000000000e-01 9.4373036022617249e+00 3.1219527061544539e+01 1.8299875688953975e+01 1 -9 0
742 444 1 -1.0484000000000000e+00 1.0738304699883976e+01 3.3755125210989803e+01 2.3574305360530854e+01 6 4 0
1421 444 2 5.2420000000000000e-01 8.7738102893262564e+00 3.2040293070701978e+01 2.5385700742317894e+01 0 2 0
2783 444 2 5.2420000000000000e-01 1.4204694333868469e+01 3.3859731855319659e+01 2.3751363497473449e+01 -1 2 0
1420 444 1 -1.0484000000000000e+00 8.7923816474099024e+00 3.1599678357185709e+01 2.6235256887222089e+01 0 2 0
1792 444 1 -1.0484000000000000e+00 8.5573312140846234e+00 3.1457139548884349e+01 1.8592146467203143e+01 1 -9 0
1215 444 2 5.2420000000000000e-01 7.8850110674555696e+00 3.3175620209875667e+01 2.2492971242628887e+01 -4 5 0
2909 444 2 5.2420000000000000e-01 1.1464280249174738e+01 3.0483684194722287e+01 2.0268688768151399e+01 0 1 0
2081 444 2 5.2420000000000000e-01 8.2795502534398242e+00 3.1095226245097678e+01 2.1318343346944037e+01 8 1 0
27 444 2 5.2420000000000000e-01 1.2999909739324556e+01 3.0758861355908643e+01 2.2155300542215326e+01 2 1 0
1425 444 2 5.2420000000000000e-01 1.3709892502846351e+01 3.0183194562157873e+01 2.6523643775607628e+01 4 0 0
890 444 2 5.2420000000000000e-01 1.2628335061240588e+01 3.4146126019535771e+01 2.0927999769640060e+01 -7 -3 0
201 444 2 5.2420000000000000e-01 1.4624153811578969e+01 3.3157074392765828e+01 2.6073086737735871e+01 1 3 0
25 444 1 -1.0484000000000000e+00 1.3729363540955642e+01 3.0539118258782128e+01 2.2734820260052405e+01 2 1 0
2782 444 1 -1.0484000000000000e+00 1.3800489478237532e+01 3.4031943604406131e+01 2.4601771604776783e+01 -1 2 0
2721 444 2 5.2420000000000000e-01 9.1275870617138466e+00 3.0545279170566793e+01 3.3849271658224119e+01 1 2 0
1371 444 2 5.2420000000000000e-01 1.2606829205049488e+01 3.1592005612431603e+01 3.0673302777682796e+01 4 1 0
1370 444 2 5.2420000000000000e-01 1.4090456556068574e+01 3.1851649213175502e+01 3.0520555510203703e+01 4 1 0
1595 444 2 5.2420000000000000e-01 8.5401911540369344e+00 3.1394563338982227e+01 2.9361000434395304e+01 -2 -1 0
1778 444 2 5.2420000000000000e-01 1.4381116845703284e+01 3.3369988592771158e+01 3.3462199244700201e+01 -12 8 0
1424 444 2 5.2420000000000000e-01 1.4573048704309942e+01 3.1319200264357402e+01 2.7029951844876162e+01 4 0 0
1369 444 1 -1.0484000000000000e+00 1.3382397511798734e+01 3.1862890869451341e+01 3.1164574038543016e+01 4 1 0
2967 444 2 5.2420000000000000e-01 9.4069532276338599e+00 3.4024764039707655e+01 3.2719493127758234e+01 -9 -3 0
182 444 2 5.2420000000000000e-01 1.4165067381996231e+01 3.0517837814457728e+01 3.4976886679037470e+01 4 -1 0
1594 444 1 -1.0484000000000000e+00 7.8585853639199330e+00 3.0869776769828050e+01 2.9780815318343226e+01 -2 -1 0
611 444 2 5.2420000000000000e-01 1.2593286305232317e+01 3.3090923050507911e+01 3.2297248068724471e+01 1 -9 0
1423 444 1 -1.0484000000000000e+00 1.4323501377329054e+01 3.0415015948279752e+01 2.7220762855560334e+01 4 0 0
2199 444 2 5.2420000000000000e-01 1.2591176211374938e+01 3.4044749075504875e+01 2.9243421645765046e+01 2 6 0
2965 444 1 -1.0484000000000000e+00 9.6560114066068419e+00 3.3639947272639894e+01 3.3559801402714321e+01 -9 -3 0
1902 444 2 5.2420000000000000e-01 1.0671792129778662e+01 3.2736368446558394e+01 2.8707288623523333e+01 -1 -2 0
1900 444 1 -1.0484000000000000e+00 1.0190730275396517e+01 3.1914818924145031e+01 2.8607944328116183e+01 -1 -2 0
2966 444 2 5.2420000000000000e-01 1.0607262249606290e+01 3.3546571886933435e+01 3.3508470867365496e+01 -9 -3 0
2719 444 1 -1.0484000000000000e+00 9.5149120514988663e+00 3.0990558849013329e+01 3.4602888098084058e+01 1 2 0
2720 444 2 5.2420000000000000e-01 9.3167737761613907e+00 3.1916441164913625e+01 3.4462475439912446e+01 1 2 0
610 444 1 -1.0484000000000000e+00 1.2282816950551545e+01 3.3499747145978063e+01 3.3105149499362845e+01 1 -9 0
1901 444 2 5.2420000000000000e-01 9.8668893069112347e+00 3.1933731165141232e+01 2.7707387541136242e+01 -1 -2 0
1596 444 2 5.2420000000000000e-01 7.4693862426665607e+00 3.0365815583712546e+01 2.9066127238023761e+01 -2 -1 0
2619 444 2 5.2420000000000000e-01 1.1189950496173443e+01 3.0447586221386789e+01 2.9067523751261245e+01 -1 -1 0
260 444 2 5.2420000000000000e-01 1.3419200640884997e+01 3.0613694222011837e+01 3.2571383914896060e+01 2 -6 0
1749 444 2 5.2420000000000000e-01 7.6964859041617046e+00 3.3898639218614335e+01 3.0984097807251214e+01 -6 -9 0
286 444 1 -1.0484000000000000e+00 1.4527905171575016e+01 3.4176854812231696e+01 2.9270244459056563e+01 -2 -3 0
2197 444 1 -1.0484000000000000e+00 1.1677738662634914e+01 3.4153301428509948e+01 2.8978692671085511e+01 2 6 0
259 444 1 -1.0484000000000000e+00 1.3582819397241421e+01 2.9970080891933389e+01 3.3260748387506794e+01 2 -6 0
2103 444 2 5.2420000000000000e-01 8.1232116144534974e+00 3.0190719915765172e+01 3.1976518069556374e+01 -3 -1 0
288 444 2 5.2420000000000000e-01 1.4800853705736765e+01 3.3590609609669357e+01 2.8564518851522955e+01 -2 -3 0
183 444 2 5.2420000000000000e-01 1.3347438817238430e+01 3.0833915465515844e+01 3.6211177953876671e+01 4 -1 0
181 444 1 -1.0484000000000000e+00 1.4207635870186516e+01 3.0976177002526068e+01 3.5816140378760785e+01 4 -1 0
438 444 2 5.2420000000000000e-01 1.7155465490024095e+01 1.0892489002063190e+00 8.5021564075569653e+00 3 -11 0
2374 444 1 -1.0484000000000000e+00 1.8714690975389601e+01 2.6609535093002261e+00 8.8683334576821000e+00 3 1 0
2376 444 2 5.2420000000000000e-01 1.9391107589154398e+01 3.0837935867404358e+00 8.3392789331601289e+00 3 1 0
2059 444 1 -1.0484000000000000e+00 2.0168727299334744e+01 3.7420682644086822e-01 8.7886459737377809e+00 3 5 0
436 444 1 -1.0484000000000000e+00 1.6527966500387762e+01 6.0217325398756683e-01 9.0362297333582688e+00 3 -11 0
2375 444 2 5.2420000000000000e-01 1.9065002287180540e+01 1.7897494110474859e+00 9.0541217146336432e+00 3 1 0
531 444 2 5.2420000000000000e-01 1.4866021475992042e+01 2.7182609138840359e+00 1.5358651691337034e+01 -3 6 0
746 444 2 5.2420000000000000e-01 1.7214463661052559e+01 3.1424284407383931e+00 1.6336707545980399e+01 4 -7 0
2756 444 2 5.2420000000000000e-01 1.5517720398927349e+01 5.7842460663232020e-01 1.6412417529763196e+01 -3 5 0
1758 444 2 5.2420000000000000e-01 1.5483908813728718e+01 2.0463823969126267e+00 1.2812930102896683e+01 5 6 0
293 444 2 5.2420000000000000e-01 2.0283034103004077e+01 1.6061495152657401e+00 1.1566807350150011e+01 -7 2 0
2074 444 1 -1.0484000000000000e+00 1.9062174406856176e+01 8.9754671584457912e-01 1.3355870435515540e+01 -2 5 0
2076 444 2 5.2420000000000000e-01 1.9412472114555509e+01 1.3926323885351455e+00 1.4096420008454423e+01 -2 5 0
2047 444 1 -1.0484000000000000e+00 1.9817493594653065e+01 2.2072205253937240e+00 1.5522333620267203e+01 -10 -3 0
2651 444 2 5.2420000000000000e-01 1.7133960860838201e+01 2.9184473584594328e+00 1.1394788008219642e+01 -2 6 0
745 444 1 -1.0484000000000000e+00 1.6972343319739696e+01 3.0793843353793298e+00 1.7260631399194327e+01 4 -7 0
2075 444 2 5.2420000000000000e-01 1.8121469980701622e+01 1.0736627351186614e+00 1.3372909488071878e+01 -2 5 0
1756 444 1 -1.0484000000000000e+00 1.6334061545953585e+01 1.6444315284701612e+00 1.2634301591449228e+01 5 6 0
1757 444 2 5.2420000000000000e-01 1.6127144123510771e+01 8.6330338110403038e-01 1.2121216230756547e+01 5 6 0
1739 444 2 5.2420000000000000e-01 2.1155122204231223e+01 3.0115157409301330e+00 9.5600627437094001e+00 -3 2 0
292 444 1 -1.0484000000000000e+00 2.1202654708186326e+01 1.7167974209200427e+00 1.1325379341906055e+01 -7 2 0
2650 444 1 -1.0484000000000000e+00 1.7568883594931172e+01 3.7368644903670574e+00 1.1155480970613935e+01 -2 6 0
2652 444 2 5.2420000000000000e-01 1.7903029602931010e+01 3.5816520465075645e+00 1.0272028865061987e+01 -2 6 0
294 444 2 5.2420000000000000e-01 2.1616223969160558e+01 8.8886793342631731e-01 1.1569770173553325e+01 -7 2 0
2048 444 2 5.2420000000000000e-01 2.0669683539375807e+01 2.4372825060052712e+00 1.5152094862255396e+01 -10 -3 0
747 444 2 5.2420000000000000e-01 1.7782404459505447e+01 3.2679704098342701e+00 1.7734412292991280e+01 4 -7 0
1331 444 2 5.2420000000000000e-01 1.6696143263938779e+01 1.1288744724433963e+00 1.7747288161360579e+01 6 3 0
2049 444 2 5.2420000000000000e-01 2.0023462334037404e+01 1.7994312170398856e+00 1.6363474275337559e+01 -10 -3 0
2755 444 1 -1.0484000000000000e+00 1.5220665391215453e+01 1.0908242058146123e+00 1.5660462129047913e+01 -3 5 0
1738 444 1 -1.0484000000000000e+00 2.1660548435488234e+01 3.4716821194066765e+00 8.8899705532205395e+00 -3 2 0
1990 444 1 -1.0484000000000000e+00 1.5027297744912163e+01 9.0054800761090470e-01 2.2041018440371158e+01 -7 1 0
1867 444 1 -1.0484000000000000e+00 1.9029518177061334e+01 4.2489914914344800e+00 1.8328718825442316e+01 -2 2 0
688 444 1 -1.0484000000000000e+00 1.9153482897081343e+01 2.3699156332575119e-01 1.9862245295790729e+01 -1 -5 0
2304 444 2 5.2420000000000000e-01 1.5639098034356426e+01 3.6016443901767956e+00 1.8148113002112797e+01 0 3 0
2920 444 1 -1.0484000000000000e+00 1.8623333442635740e+01 3.0773063182083443e-01 2.2426558655922825e+01 2 -7 0
2073 444 2 5.2420000000000000e-01 2.1503594854838166e+01 7.1951890707151112e-01 2.5905214311870338e+01 -8 -1 0
1626 444 2 5.2420000000000000e-01 2.0225292616811064e+01 6.1951511150542626e-01 2.3284535060359495e+01 -3 -1 0
1625 444 2 5.2420000000000000e-01 2.1716228327276323e+01 8.7914166867493293e-01 2.3324537186594135e+01 -3 -1 0
501 444 2 5.2420000000000000e-01 1.4875275624346415e+01 7.0385662608683230e-02 2.0178919162171045e+01 2 -4 0
1624 444 1 -1.0484000000000000e+00 2.0903812040663301e+01 1.0577327377785188e+00 2.3798158315227884e+01 -3 -1 0
1247 444 2 5.2420000000000000e-01 2.1720135398225260e+01 1.5700832353231098e+00 1.8083368340440323e+01 6 -4 0
1992 444 2 5.2420000000000000e-01 1.5430543429565224e+01 7.1612016690856359e-02 2.2298875367973480e+01 -7 1 0
1246 444 1 -1.0484000000000000e+00 2.0812755717361021e+01 1.8171376583490266e+00 1.8261856907233089e+01 6 -4 0
579 444 2 5.2420000000000000e-01 1.7711277948453876e+01 3.2445012284612176e+00 2.2113085601314964e+01 -2 -3 0
689 444 2 5.2420000000000000e-01 1.8273475536964849e+01 4.4988849936026110e-01 1.9551610554858872e+01 -1 -5 0
1090 444 1 -1.0484000000000000e+00 2.0768651999157907e+01 3.7160016725552700e+00 2.4520124559119221e+01 1 1 0
1248 444 2 5.2420000000000000e-01 2.0534206908063499e+01 1.2214113316214583e+00 1.8957380418331617e+01 6 -4 0
1092 444 2 5.2420000000000000e-01 2.0710298827202852e+01 2.7829157151876478e+00 2.4314753247011645e+01 1 1 0
2922 444 2 5.2420000000000000e-01 1.8310356166674428e+01 1.1761145939665816e+00 2.2679911250646910e+01 2 -7 0
577 444 1 -1.0484000000000000e+00 1.7219737381901584e+01 2.7754934530503363e+00 2.2787364379317641e+01 -2 -3 0
578 444 2 5.2420000000000000e-01 1.7086015273743214e+01 3.4221239312707890e+00 2.3480343003610500e+01 -2 -3 0
1330 444 1 -1.0484000000000000e+00 1.6781014273298261e+01 1.9177029418159650e-01 1.7922971325517789e+01 6 3 0
1991 444 2 5.2420000000000000e-01 1.5619334037668207e+01 1.5714455496395723e+00 2.2381050219931694e+01 -7 1 0
690 444 2 5.2420000000000000e-01 1.9057685442157194e+01 1.4516342810363314e-01 2.0810202249151544e+01 -1 -5 0
1091 444 2 5.2420000000000000e-01 2.0777409313940520e+01 4.1494715804445601e+00 2.3666743627983056e+01 1 1 0
2302 444 1 -1.0484000000000000e+00 1.4969585708096764e+01 4.1083778814753300e+00 1.8607684968938649e+01 0 3 0
1767 444 2 5.2420000000000000e-01 1.8186830550186343e+01 4.2375286112483286e+00 1.9887865442640518e+01 -2 2 0
1868 444 2 5.2420000000000000e-01 1.9985784193456702e+01 4.2454165222691636e+00 1.8286591407493649e+01 -2 2 0
562 444 1 -1.0484000000000000e+00 1.6342450655364516e+01 3.4510303244295968e+00 3.3791855251166822e+01 -5 -7 0
1665 444 2 5.2420000000000000e-01 1.9348440754925768e+01 2.7989067679402155e+00 3.4524365997833911e+01 -2 -7 0
1664 444 2 5.2420000000000000e-01 1.9785903781601512e+01 1.7382543460213280e+00 3.5512060224664019e+01 -2 -7 0
564 444 2 5.2420000000000000e-01 1.6262129164624863e+01 2.9489851860704817e+00 3.4602861758556870e+01 -5 -7 0
1663 444 1 -1.0484000000000000e+00 1.9117283971717853e+01 2.4076438160284979e+00 3.5366810916538093e+01 -2 -7 0
563 444 2 5.2420000000000000e-01 1.7172946651010871e+01 3.1633059174292342e+00 3.3412746816388427e+01 -5 -7 0
287 444 2 5.2420000000000000e-01 1.5342140173037714e+01 2.0371866677849707e-01 2.9714897312013495e+01 -2 -2 0
719 444 2 5.2420000000000000e-01 1.9854176364164609e+01 4.6542305671489931e-01 2.7622244238713250e+01 0 2 0
2071 444 1 -1.0484000000000000e+00 2.1746084360356246e+01 3.7653208239784008e-01 2.6765325733060969e+01 -8 -1 0
2350 444 1 -1.0484000000000000e+00 1.9262184087250020e+01 3.8182893755641780e+00 3.3150187211386211e+01 0 -2 0
718 444 1 -1.0484000000000000e+00 1.8907450118270155e+01 3.2478308097693598e-01 2.7634989291099458e+01 0 2 0
2625 444 2 5.2420000000000000e-01 2.1878955400046149e+01 1.6294315953036522e+00 2.8295520056417224e+01 1 -2 0
1824 444 2 5.2420000000000000e-01 1.7429797215235102e+01 8.5145273416856748e-01 3.1086820806330774e+01 4 -6 0
2226 444 2 5.2420000000000000e-01 2.0500179635102526e+01 1.9252573235354653e+00 3.1402125138770071e+01 4 6 0
2224 444 1 -1.0484000000000000e+00 2.0273491909865946e+01 2.7360848630623051e+00 3.0946709561229202e+01 4 6 0
720 444 2 5.2420000000000000e-01 1.8533393898251163e+01 1.2011830874564142e+00 2.7544224885619958e+01 0 2 0
2351 444 2 5.2420000000000000e-01 1.9563995375920324e+01 3.4022467537508652e+00 3.2342690859185758e+01 0 -2 0
2332 444 1 -1.0484000000000000e+00 1.6599526643494571e+01 3.5479635597556753e+00 2.9811014628783006e+01 -7 6 0
2225 444 2 5.2420000000000000e-01 2.0693738768565481e+01 2.6559456581267873e+00 3.0090437180595107e+01 4 6 0
1822 444 1 -1.0484000000000000e+00 1.6532981211340534e+01 1.1220147834870098e+00 3.1283669732869278e+01 4 -6 0
1823 444 2 5.2420000000000000e-01 1.6483342607192053e+01 2.0281064648219220e+00 3.0979093678976824e+01 4 -6 0
2334 444 2 5.2420000000000000e-01 1.7377988069739157e+01 3.3257012442265679e+00 2.9300299516074958e+01 -7 6 0
2623 444 1 -1.0484000000000000e+00 2.1647306253675051e+01 2.4953238194203884e+00 2.8631380443096372e+01 1 -2 0
2256 444 2 5.2420000000000000e-01 1.8720319782102052e+01 3.7313608136182834e+00 2.7322890310986107e+01 6 9 0
2254 444 1 -1.0484000000000000e+00 1.8836313720037587e+01 2.9889492588690625e+00 2.7915851685280852e+01 6 9 0
2255 444 2 5.2420000000000000e-01 1.9777886897082926e+01 2.8171067202251474e+00 2.7903913027793831e+01 6 9 0
122 444 2 5.2420000000000000e-01 1.7306461587423254e+01 2.0371783570713826e+00 3.5989259610849672e+01 -3 -1 0
554 444 2 5.2420000000000000e-01 2.2166590485466674e+01 7.6430567507673963e-01 3.6418731937992405e+01 -3 2 0
265 444 1 -1.0484000000000000e+00 2.1370322700873057e+01 3.7305598133292639e+00 3.6775392510384876e+01 -5 3 0
123 444 2 5.2420000000000000e-01 1.6436194120931830e+01 8.8601105345272368e-01 3.6446801374512503e+01 -3 -1 0
267 444 2 5.2420000000000000e-01 2.0479010325490101e+01 3.4338347761531764e+00 3.6591684181937019e+01 -5 3 0
121 444 1 -1.0484000000000000e+00 1.6407293194339310e+01 1.7101869134656695e+00 3.5960868002018806e+01 -3 -1 0
2124 444 2 5.2420000000000000e-01 1.9860481153831493e+01 6.5921292461443679e+00 8.6721893575164639e+00 6 0 0
2122 444 1 -1.0484000000000000e+00 1.9028394435493393e+01 6.9091315832498568e+00 9.0234346372625858e+00 6 0 0
2026 444 1 -1.0484000000000000e+00 1.6152513444253241e+01 7.2305462471635060e+00 9.6283147786499068e+00 3 3 0
2028 444 2 5.2420000000000000e-01 1.5926126877121471e+01 6.3029322849889979e+00 9.6955001318819249e+00 3 3 0
589 444 1 -1.0484000000000000e+00 1.8577912517515781e+01 7.9695449361484370e+00 1.3715722913635842e+01 -8 5 0
369 444 2 5.2420000000000000e-01 2.1245576901027874e+01 5.7074614375315402e+00 1.2648278155443391e+01 2 3 0
2123 444 2 5.2420000000000000e-01 1.9111426196986223e+01 6.8018360257304460e+00 9.9709716375599733e+00 6 0 0
2211 444 2 5.2420000000000000e-01 1.4851865232329782e+01 8.5225621161863110e+00 9.1777067217022523e+00 7 -4 0
1259 444 2 5.2420000000000000e-01 2.0994484278156236e+01 8.0801260558457830e+00 1.6176148082556143e+01 -6 1 0
1180 444 1 -1.0484000000000000e+00 1.8505525728027738e+01 6.4166776775263958e+00 1.6724084566445796e+01 -1 0 0
1181 444 2 5.2420000000000000e-01 1.9227322205780695e+01 7.0418766551839873e+00 1.6657977956796461e+01 -1 0 0
1182 444 2 5.2420000000000000e-01 1.8070008887921443e+01 6.4620564073379168e+00 1.5872910043461397e+01 -1 0 0
16 444 1 -1.0484000000000000e+00 1.9446258645949630e+01 6.1398786126752682e+00 1.1796565277551569e+01 1 9 0
17 444 2 5.2420000000000000e-01 1.8802832423670232e+01 5.4414912587088962e+00 1.1676189644048208e+01 1 9 0
18 444 2 5.2420000000000000e-01 1.9153414907313511e+01 6.6033559943001086e+00 1.2581208239752771e+01 1 9 0
2663 444 2 5.2420000000000000e-01 1.6895900210497842e+01 6.6629728641120991e+00 1.7415706076409286e+01 -4 0 0
2662 444 1 -1.0484000000000000e+00 1.5968345576255199e+01 6.6739712484404015e+00 1.7651830190353266e+01 -4 0 0
1869 444 2 5.2420000000000000e-01 1.8761474701044133e+01 4.8629950434667899e+00 1.7645062497064554e+01 -2 2 0
2664 444 2 5.2420000000000000e-01 1.5559798134563740e+01 7.2361873501527318e+00 1.6993624359710576e+01 -4 0 0
1258 444 1 -1.0484000000000000e+00 2.0487693911091956e+01 8.1653812973039823e+00 1.6983692859989866e+01 -6 1 0
2027 444 2 5.2420000000000000e-01 1.7053894576428103e+01 7.2348760481926675e+00 9.3062493826509982e+00 3 3 0
1735 444 1 -1.0484000000000000e+00 1.5249169507744176e+01 4.7571579555631303e+00 1.0229842880017223e+01 -3 -2 0
590 444 2 5.2420000000000000e-01 1.9238329749877085e+01 8.5171834792524308e+00 1.4140191107394434e+01 -8 5 0
708 444 2 5.2420000000000000e-01 2.2105894448801603e+01 6.7196761786708086e+00 1.4433780361478755e+01 1 -2 0
1737 444 2 5.2420000000000000e-01 1.6031632968905321e+01 4.3686239968156748e+00 1.0621026357825258e+01 -3 -2 0
367 444 1 -1.0484000000000000e+00 2.2064746092313268e+01 5.7365690799804083e+00 1.3142593239841993e+01 2 3 0
248 444 2 5.2420000000000000e-01 1.4912686459953123e+01 8.3060548078393026e+00 1.5200097436097648e+01 5 4 0
591 444 2 5.2420000000000000e-01 1.8227455808972891e+01 8.5171977580742464e+00 1.3013235109775533e+01 -8 5 0
706 444 1 -1.0484000000000000e+00 2.2203545689580459e+01 7.5151155592247765e+00 1.4957204136787283e+01 1 -2 0
1766 444 2 5.2420000000000000e-01 1.9126776293928074e+01 4.6861178775921442e+00 2.0986576158887754e+01 -2 2 0
1081 444 1 -1.0484000000000000e+00 1.5690058296505690e+01 4.4405751026527618e+00 2.5191415671035429e+01 -9 -7 0
274 444 1 -1.0484000000000000e+00 1.8362890726707828e+01 4.8256607113118344e+00 2.5873605356722940e+01 1 -2 0
736 444 1 -1.0484000000000000e+00 2.0868858786038658e+01 4.7808178014771290e+00 2.1920115742193172e+01 0 -3 0
1229 444 2 5.2420000000000000e-01 1.4969478891318317e+01 8.0418884743814250e+00 2.5039044869481753e+01 2 3 0
1082 444 2 5.2420000000000000e-01 1.5448106813376439e+01 5.0446142843203008e+00 2.4489396991125084e+01 -9 -7 0
1083 444 2 5.2420000000000000e-01 1.6636001201370235e+01 4.5509319431360042e+00 2.5287572425312348e+01 -9 -7 0
275 444 2 5.2420000000000000e-01 1.9070817365685837e+01 4.5499215087664222e+00 2.5291333589476761e+01 1 -2 0
738 444 2 5.2420000000000000e-01 2.1661602854319575e+01 4.2831002447903161e+00 2.1719950925486621e+01 0 -3 0
1765 444 1 -1.0484000000000000e+00 1.8213201559353838e+01 4.4541256942063860e+00 2.0819864525628820e+01 -2 2 0
2303 444 2 5.2420000000000000e-01 1.5056126438688322e+01 4.9945919995971648e+00 1.8256448248062480e+01 0 3 0
1445 444 2 5.2420000000000000e-01 1.5654657759044426e+01 7.7122086470551574e+00 1.9133671429817724e+01 -5 0 0
2563 444 1 -1.0484000000000000e+00 1.7266169365464080e+01 6.9161594794972245e+00 2.1518526354455719e+01 -13 -5 0
2564 444 2 5.2420000000000000e-01 1.8084170964185628e+01 7.4118713164032846e+00 2.1555607935243167e+01 -13 -5 0
1550 444 2 5.2420000000000000e-01 2.1456762862064569e+01 8.4917949833851107e+00 1.8562831809473945e+01 3 3 0
276 444 2 5.2420000000000000e-01 1.8273395750315974e+01 5.7652686093832468e+00 2.5714354675910659e+01 1 -2 0
2565 444 2 5.2420000000000000e-01 1.7539375364535164e+01 6.0146197994476278e+00 2.1348771862493297e+01 -13 -5 0
1446 444 2 5.2420000000000000e-01 1.6074260742255099e+01 7.6731328100368419e+00 2.0587735296336476e+01 -5 0 0
392 444 2 5.2420000000000000e-01 1.5484311147082664e+01 6.3298212343049585e+00 2.2387678989233581e+01 2 -3 0
737 444 2 5.2420000000000000e-01 2.1162591664879542e+01 5.6905198504679939e+00 2.1969055538786698e+01 0 -3 0
993 444 2 5.2420000000000000e-01 1.8901708792725358e+01 7.9658210641314584e+00 2.5094830315840515e+01 5 -4 0
991 444 1 -1.0484000000000000e+00 1.8440995238453596e+01 7.5855053387766471e+00 2.5842717392950192e+01 5 -4 0
992 444 2 5.2420000000000000e-01 1.7513433550163530e+01 7.6748290547973479e+00 2.5623896238688410e+01 5 -4 0
682 444 1 -1.0484000000000000e+00 2.1899456862223545e+01 7.2592048897633550e+00 2.1926076905043434e+01 -1 -3 0
1444 444 1 -1.0484000000000000e+00 1.5457953942118783e+01 8.0946652226469418e+00 1.9988812691190180e+01 -5 0 0
391 444 1 -1.0484000000000000e+00 1.4865859324878896e+01 5.8025334011691614e+00 2.2893365315281454e+01 2 -3 0
684 444 2 5.2420000000000000e-01 2.1928970833014290e+01 7.8788667690132117e+00 2.1197118205827991e+01 -1 -3 0
1228 444 1 -1.0484000000000000e+00 1.5879952681706255e+01 8.3303079574128258e+00 2.5102953901661227e+01 2 3 0
2333 444 2 5.2420000000000000e-01 1.6780064635141994e+01 4.4226562785169259e+00 3.0155328729082136e+01 -7 6 0
443 444 2 5.2420000000000000e-01 1.5105611885595575e+01 7.3796222342386768e+00 2.8757287585664592e+01 4 10 0
2352 444 2 5.2420000000000000e-01 1.9894986491869375e+01 4.5183578199263081e+00 3.3310490528686046e+01 0 -2 0
442 444 1 -1.0484000000000000e+00 1.5499573762054979e+01 8.0045789758936081e+00 2.9365938555220275e+01 4 10 0
1833 444 2 5.2420000000000000e-01 2.0579279247699343e+01 4.6548015204438737e+00 3.0499439261219838e+01 -1 0 0
1285 444 1 -1.0484000000000000e+00 1.5641606286211042e+01 6.3971401904069154e+00 3.3573644264466665e+01 -7 2 0
1704 444 2 5.2420000000000000e-01 1.8752230036517890e+01 8.1398608917580493e+00 3.1292547978928106e+01 -14 2 0
984 444 2 5.2420000000000000e-01 1.7625161492108088e+01 6.3435707376959423e+00 3.1313114560859397e+01 5 -5 0
982 444 1 -1.0484000000000000e+00 1.6747142176856041e+01 6.0334385759030189e+00 3.1091456739685757e+01 5 -5 0
2859 444 2 5.2420000000000000e-01 1.5323936913342594e+01 5.3164159958657216e+00 2.8065360239744816e+01 3 -2 0
983 444 2 5.2420000000000000e-01 1.6185843968205155e+01 6.3895946367181198e+00 3.1780172525803959e+01 5 -5 0
1702 444 1 -1.0484000000000000e+00 1.8938737823495817e+01 7.3708475754581473e+00 3.1831126106858783e+01 -14 2 0
68 444 2 5.2420000000000000e-01 1.9225826765904483e+01 7.4743167886097295e+00 3.3615847113540902e+01 1 1 0
1286 444 2 5.2420000000000000e-01 1.5863538362868239e+01 5.5197841506100804e+00 3.3885453553576468e+01 -7 2 0
1703 444 2 5.2420000000000000e-01 1.9591651664792348e+01 6.8805959942391643e+00 3.1331536304921215e+01 -14 2 0
1978 444 1 -1.0484000000000000e+00 2.0721740346367511e+01 7.0933900066002966e+00 2.7952852243592204e+01 -4 1 0
1979 444 2 5.2420000000000000e-01 1.9833207925515062e+01 7.0128289993085602e+00 2.7606078397455256e+01 -4 1 0
67 444 1 -1.0484000000000000e+00 1.9609944540396828e+01 7.7202386126052627e+00 3.4457398972667399e+01 1 1 0
69 444 2 5.2420000000000000e-01 1.9156910482405500e+01 8.5274049674488381e+00 3.4701274706756557e+01 1 1 0
444 444 2 5.2420000000000000e-01 1.5957046723799314e+01 7.4599270048509734e+00 3.0006489562474940e+01 4 10 0
1832 444 2 5.2420000000000000e-01 2.1383314727274293e+01 5.9370857706331881e+00 3.0465238877061456e+01 -1 0 0
1980 444 2 5.2420000000000000e-01 2.0714250643666109e+01 6.5720614089873175e+00 2.8755592817268386e+01 -4 1 0
441 444 2 5.2420000000000000e-01 1.5812451857180214e+01 8.1094796734300107e+00 3.4376577939019683e+01 5 1 0
1831 444 1 -1.0484000000000000e+00 2.0530880322203359e+01 5.5716018204949167e+00 3.0228576308161795e+01 -1 0 0
2205 444 2 5.2420000000000000e-01 2.1413726952455931e+01 7.8505894154068976e+00 3.3558454836898441e+01 -1 -7 0
977 444 2 5.2420000000000000e-01 2.1934204777265368e+01 8.3369505035651308e+00 3.0305150568132682e+01 2 7 0
266 444 2 5.2420000000000000e-01 2.1353532359687922e+01 4.6695961462112381e+00 3.6590563234099605e+01 -5 3 0
668 444 2 5.2420000000000000e-01 2.0860574974612806e+01 6.7576806833106282e+00 3.5593658400567755e+01 2 6 0
667 444 1 -1.0484000000000000e+00 2.1716782326463292e+01 6.4282630103651597e+00 3.5866835969930712e+01 2 6 0
669 444 2 5.2420000000000000e-01 2.2057073281036224e+01 7.1027949846474669e+00 3.6454578788422069e+01 2 6 0
1709 444 2 5.2420000000000000e-01 2.1261367338005648e+01 1.0611107223569922e+01 8.5787724417671534e+00 4 6 0
1708 444 1 -1.0484000000000000e+00 2.2040539292465962e+01 1.1125292847494277e+01 8.7902838630251932e+00 4 6 0
2525 444 2 5.2420000000000000e-01 1.9572084998391748e+01 9.1137347615714113e+00 8.4150974591400960e+00 -6 1 0
2524 444 1 -1.0484000000000000e+00 1.9513277904906460e+01 1.0062228318676773e+01 8.3004948912575536e+00 -6 1 0
2526 444 2 5.2420000000000000e-01 1.8613176614699562e+01 1.0278074292531851e+01 8.5443394423598473e+00 -6 1 0
2523 444 2 5.2420000000000000e-01 1.6556941926294545e+01 1.2797156407386947e+01 8.4411890461976551e+00 0 2 0
249 444 2 5.2420000000000000e-01 1.5415381919627531e+01 9.5779128577923167e+00 1.5849383489348423e+01 5 4 0
233 444 2 5.2420000000000000e-01 2.0610512959100273e+01 1.2095648830491212e+01 9.4769941366358701e+00 1 3 0
2012 444 2 5.2420000000000000e-01 1.8717430106600368e+01 1.0886179053016672e+01 1.2860167945016816e+01 -1 -2 0
1260 444 2 5.2420000000000000e-01 2.0129973421325651e+01 9.0525870539555111e+00 1.6949995492272823e+01 -6 1 0
2013 444 2 5.2420000000000000e-01 1.7364278541488286e+01 1.1264878780173781e+01 1.2296728976846474e+01 -1 -2 0
2915 444 2 5.2420000000000000e-01 1.6133352599404120e+01 1.1467699588503370e+01 1.5353761396519248e+01 -8 9 0
2011 444 1 -1.0484000000000000e+00 1.7928995475468927e+01 1.0511173158923484e+01 1.2467773492441180e+01 -1 -2 0
381 444 2 5.2420000000000000e-01 1.5981682040027197e+01 9.4052156140232999e+00 1.1951934108538525e+01 -4 -1 0
1986 444 2 5.2420000000000000e-01 1.8300633495584748e+01 1.0992185681795817e+01 1.6829938215902001e+01 -6 -1 0
1984 444 1 -1.0484000000000000e+00 1.9194663999165837e+01 1.0652143286973326e+01 1.6866172123869138e+01 -6 -1 0
1985 444 2 5.2420000000000000e-01 1.9735372574923144e+01 1.1418560763735540e+01 1.7057148992873387e+01 -6 -1 0
247 444 1 -1.0484000000000000e+00 1.4905160076169723e+01 8.7877940511234680e+00 1.6027202533172552e+01 5 4 0
2914 444 1 -1.0484000000000000e+00 1.6438759904090627e+01 1.1114917855349134e+01 1.6189527093525093e+01 -8 9 0
2916 444 2 5.2420000000000000e-01 1.6620418421282864e+01 1.1887783917580915e+01 1.6724233033083703e+01 -8 9 0
926 444 2 5.2420000000000000e-01 1.4880225314363749e+01 1.0892394971565347e+01 1.3279404015841720e+01 -14 -7 0
379 444 1 -1.0484000000000000e+00 1.5070378339871343e+01 9.6975125402634461e+00 1.1934038735909997e+01 -4 -1 0
925 444 1 -1.0484000000000000e+00 1.4934326349626071e+01 1.1444670648886609e+01 1.4059337714787898e+01 -14 -7 0
234 444 2 5.2420000000000000e-01 1.9416878382294339e+01 1.2355049012754719e+01 1.0371334089884893e+01 1 3 0
232 444 1 -1.0484000000000000e+00 1.9922834842649682e+01 1.2737418367756922e+01 9.6543727003003283e+00 1 3 0
2751 444 2 5.2420000000000000e-01 1.9394198080227778e+01 1.1374273965540164e+01 2.6146568030506707e+01 1 4 0
1551 444 2 5.2420000000000000e-01 2.1931431798479384e+01 9.6932598092576114e+00 1.9352178472766752e+01 3 3 0
1334 444 2 5.2420000000000000e-01 2.1964987452838525e+01 1.2282308472713209e+01 2.3837208303310145e+01 -1 -1 0
1918 444 1 -1.0484000000000000e+00 2.0160392700627380e+01 8.6598449300875924e+00 2.3924692556392767e+01 9 7 0
2540 444 2 5.2420000000000000e-01 1.4936408716264760e+01 1.1489584493405848e+01 2.0453562267128948e+01 -1 4 0
273 444 2 5.2420000000000000e-01 1.8823964744268551e+01 9.3297280526809132e+00 2.1309418180704728e+01 -10 2 0
2539 444 1 -1.0484000000000000e+00 1.5623985940768607e+01 1.0973015319630036e+01 2.0873832563847600e+01 -1 4 0
2541 444 2 5.2420000000000000e-01 1.5587241096051239e+01 1.0122839773960832e+01 2.0435558025005147e+01 -1 4 0
537 444 2 5.2420000000000000e-01 1.7021554397237267e+01 1.2198384289852658e+01 2.0715686668180076e+01 5 1 0
81 444 2 5.2420000000000000e-01 1.6065321980997901e+01 1.0734734364736548e+01 2.2808624821501986e+01 1 4 0
132 444 2 5.2420000000000000e-01 1.9537958916186781e+01 1.0416662783540380e+01 2.4160440731242677e+01 -7 -3 0
2373 444 2 5.2420000000000000e-01 1.9235303333552544e+01 1.2026337846252739e+01 2.0929293035685152e+01 -2 -3 0
2372 444 2 5.2420000000000000e-01 2.0211348240988709e+01 1.1606664304470668e+01 2.2007767073291820e+01 -2 -3 0
2371 444 1 -1.0484000000000000e+00 1.9984351565885870e+01 1.1452662377247083e+01 2.1090713086068256e+01 -2 -3 0
130 444 1 -1.0484000000000000e+00 1.9002426091763855e+01 1.1201986179361350e+01 2.4273161595656891e+01 -7 -3 0
80 444 2 5.2420000000000000e-01 1.7038967797665585e+01 1.1047508344529883e+01 2.3924905857346399e+01 1 4 0
79 444 1 -1.0484000000000000e+00 1.6104590037953521e+01 1.0953312872087375e+01 2.3739707091396401e+01 1 4 0
131 444 2 5.2420000000000000e-01 1.9595725937179928e+01 1.1927181329777650e+01 2.4077407116444213e+01 -7 -3 0
1549 444 1 -1.0484000000000000e+00 2.1744423301147854e+01 8.7582579525889450e+00 1.9436033993295048e+01 3 3 0
1230 444 2 5.2420000000000000e-01 1.5925704706848002e+01 9.1061530802325414e+00 2.4544201477670622e+01 2 3 0
723 444 2 5.2420000000000000e-01 2.1930949215108154e+01 1.2112393595017931e+01 1.8539969329503087e+01 5 -10 0
1452 444 2 5.2420000000000000e-01 1.6129805875735038e+01 1.2636771591461038e+01 2.4238871238683910e+01 -3 6 0
722 444 2 5.2420000000000000e-01 2.1502767137701710e+01 1.1731243137859504e+01 1.9941140739589695e+01 5 -10 0
272 444 2 5.2420000000000000e-01 2.0147264075803207e+01 8.9138248275557999e+00 2.0702953948283543e+01 -10 2 0
1920 444 2 5.2420000000000000e-01 2.0216059873748996e+01 8.5994823732963539e+00 2.2971020406340802e+01 9 7 0
1919 444 2 5.2420000000000000e-01 2.1064648511690773e+01 8.5660457164854780e+00 2.4224286711725963e+01 9 7 0
271 444 1 -1.0484000000000000e+00 1.9374501471989895e+01 8.5638631008511314e+00 2.1146346582193679e+01 -10 2 0
2467 444 1 -1.0484000000000000e+00 2.1421937037464378e+01 1.0610383239433361e+01 3.2623344045990066e+01 3 1 0
2643 444 2 5.2420000000000000e-01 1.5751838024410524e+01 9.5461301009007453e+00 3.0201425201304634e+01 0 4 0
1432 444 1 -1.0484000000000000e+00 2.2021975678404985e+01 1.0199132961250253e+01 2.9764821521992523e+01 -5 4 0
2641 444 1 -1.0484000000000000e+00 1.6124735671099732e+01 1.0379228957909460e+01 3.0489740365713971e+01 0 4 0
1005 444 2 5.2420000000000000e-01 2.0790128304115179e+01 1.0343160046764739e+01 2.7158109750287256e+01 -8 1 0
1023 444 2 5.2420000000000000e-01 1.5392068796622901e+01 1.0403880451197796e+01 3.3928720989957554e+01 -2 -4 0
2429 444 2 5.2420000000000000e-01 1.4938872111215733e+01 1.2310420067700358e+01 2.7840820336354085e+01 1 -4 0
1004 444 2 5.2420000000000000e-01 2.1121092250635773e+01 8.9135647269943767e+00 2.6785797464167178e+01 -8 1 0
1987 444 1 -1.0484000000000000e+00 1.8795261577303830e+01 1.1588577642384289e+01 3.2960426980482566e+01 -5 0 0
1022 444 2 5.2420000000000000e-01 1.5822852596190398e+01 1.0750807044721766e+01 3.2519479061231856e+01 -2 -4 0
881 444 2 5.2420000000000000e-01 1.9131090138904838e+01 1.0450351716817181e+01 2.9941065988268377e+01 5 8 0
880 444 1 -1.0484000000000000e+00 1.8944633014476317e+01 9.5163301583404607e+00 3.0036306396848190e+01 5 8 0
2483 444 2 5.2420000000000000e-01 1.8161071338694736e+01 1.0457415817145172e+01 3.4838174301688888e+01 5 -1 0
2469 444 2 5.2420000000000000e-01 2.1850607151781318e+01 9.7955379776118541e+00 3.2885071028484163e+01 3 1 0
1988 444 2 5.2420000000000000e-01 1.9653462597644936e+01 1.1166019122367178e+01 3.2994608688302478e+01 -5 0 0
439 444 1 -1.0484000000000000e+00 1.5671231287961968e+01 8.9511281033743515e+00 3.4810071359755504e+01 5 1 0
1512 444 2 5.2420000000000000e-01 1.6394837013467516e+01 9.9868018711890389e+00 2.7235001534666750e+01 -5 -8 0
1510 444 1 -1.0484000000000000e+00 1.5965998498480765e+01 1.0621585040867412e+01 2.7808917753446096e+01 -5 -8 0
1021 444 1 -1.0484000000000000e+00 1.5393686414882442e+01 1.1118591124171559e+01 3.3291996531907429e+01 -2 -4 0
1511 444 2 5.2420000000000000e-01 1.6347592077465329e+01 1.0460978629253308e+01 2.8671949693244212e+01 -5 -8 0
1989 444 2 5.2420000000000000e-01 1.8831302324587305e+01 1.2260475790396292e+01 3.3641226031527871e+01 -5 0 0
1003 444 1 -1.0484000000000000e+00 2.1525311775366987e+01 9.7395077907180276e+00 2.7051611442620356e+01 -8 1 0
882 444 2 5.2420000000000000e-01 1.9464684266256970e+01 9.0966890623075329e+00 2.9350974282198965e+01 5 8 0
1068 444 2 5.2420000000000000e-01 1.5928262421368728e+01 1.2785539600239462e+01 3.4065598406118987e+01 -2 0 0
2468 444 2 5.2420000000000000e-01 2.1593709173798302e+01 1.0681054548600416e+01 3.1684338317649843e+01 3 1 0
2642 444 2 5.2420000000000000e-01 1.7071048047332482e+01 1.0258567286638979e+01 3.0411219469051375e+01 0 4 0
2749 444 1 -1.0484000000000000e+00 1.9304356434036638e+01 1.1346193185194080e+01 2.7099129346524791e+01 1 4 0
2750 444 2 5.2420000000000000e-01 1.8426313758165882e+01 1.1688111270668657e+01 2.7267550471259284e+01 1 4 0
2695 444 1 -1.0484000000000000e+00 1.9085607305345878e+01 1.2287651280257087e+01 3.0236091146200248e+01 1 1 0
2697 444 2 5.2420000000000000e-01 1.8863514840160256e+01 1.2266815648502206e+01 3.1166937170205610e+01 1 1 0
1434 444 2 5.2420000000000000e-01 2.1909349129460828e+01 9.9364777259679080e+00 2.8851278698516847e+01 -5 4 0
2828 444 2 5.2420000000000000e-01 1.4974192286096205e+01 1.2318726702011725e+01 3.7417410938196419e+01 -1 -3 0
1734 444 2 5.2420000000000000e-01 1.6712674195147986e+01 1.1247621587815587e+01 3.8550593633532692e+01 -9 -3 0
2827 444 1 -1.0484000000000000e+00 1.5123625688554467e+01 1.1428523337355355e+01 3.7735907821918346e+01 -1 -3 0
440 444 2 5.2420000000000000e-01 1.5108666847617275e+01 8.7451601372505259e+00 3.5556617054582752e+01 5 1 0
954 444 2 5.2420000000000000e-01 1.8584655014276258e+01 1.1349076329627493e+01 3.6693421409875313e+01 -5 -2 0
2484 444 2 5.2420000000000000e-01 1.7254507285878777e+01 9.6206476297314101e+00 3.5715588815413518e+01 5 -1 0
2482 444 1 -1.0484000000000000e+00 1.8167047618574873e+01 9.8889489795614054e+00 3.5608266772251618e+01 5 -1 0
952 444 1 -1.0484000000000000e+00 1.9060864841694464e+01 1.2058300292185226e+01 3.7125228624318687e+01 -5 -2 0
953 444 2 5.2420000000000000e-01 1.8625164152865811e+01 1.2159509704113150e+01 3.7971487160567236e+01 -5 -2 0
1732 444 1 -1.0484000000000000e+00 1.7408392015286136e+01 1.1215796987812327e+01 3.9207248675816871e+01 -9 -3 0
1077 444 2 5.2420000000000000e-01 2.0921521891190114e+01 1.1483127596192793e+01 3.6825477990537877e+01 -1 -2 0
1733 444 2 5.2420000000000000e-01 1.6964086301074442e+01 1.0959401759390961e+01 4.0015385951174572e+01 -9 -3 0
1075 444 1 -1.0484000000000000e+00 2.1875566959557144e+01 1.1408328659372270e+01 3.6846353874560215e+01 -1 -2 0
1076 444 2 5.2420000000000000e-01 2.2162235761822881e+01 1.1758177619130532e+01 3.6002753948040713e+01 -1 -2 0
2521 444 1 -1.0484000000000000e+00 1.7220312978582225e+01 1.3468872472747126e+01 8.5992052764223192e+00 0 2 0
2810 444 2 5.2420000000000000e-01 2.0973425662314611e+01 1.6990907439573107e+01 8.5830810153607509e+00 -11 -1 0
2522 444 2 5.2420000000000000e-01 1.8053973168126564e+01 1.3003288636537949e+01 8.5323133215327100e+00 0 2 0
999 444 2 5.2420000000000000e-01 1.5160511789709956e+01 1.4611973041626092e+01 8.6447157164101345e+00 1 8 0
1154 444 2 5.2420000000000000e-01 2.1980867282398126e+01 1.5557325891324986e+01 9.7676387658836070e+00 -9 0 0
1153 444 1 -1.0484000000000000e+00 2.1616192090820817e+01 1.5062848483833569e+01 9.0336523688854271e+00 -9 0 0
1007 444 2 5.2420000000000000e-01 1.7941847999414595e+01 1.6468171742073377e+01 9.8432712939209797e+00 -2 0 0
251 444 2 5.2420000000000000e-01 1.8448390667502249e+01 1.3394042930563987e+01 1.5687276527358062e+01 14 0 0
250 444 1 -1.0484000000000000e+00 1.8629647534482650e+01 1.3841235300348226e+01 1.4860597738280342e+01 14 0 0
2133 444 2 5.2420000000000000e-01 2.0656275929227085e+01 1.4506970514954954e+01 1.5231716501909897e+01 -3 6 0
910 444 1 -1.0484000000000000e+00 1.5029829327443974e+01 1.5461145808757502e+01 1.1657498934022810e+01 1 2 0
252 444 2 5.2420000000000000e-01 1.7765425869856028e+01 1.4053792304156481e+01 1.4508215290805921e+01 14 0 0
911 444 2 5.2420000000000000e-01 1.5888380797941959e+01 1.5725088129218641e+01 1.1326656864146836e+01 1 2 0
2131 444 1 -1.0484000000000000e+00 2.1610081329675932e+01 1.4567467632715681e+01 1.5284894496318955e+01 -3 6 0
1817 444 2 5.2420000000000000e-01 1.8988352240665819e+01 1.5584369155276102e+01 1.1892808943804697e+01 6 4 0
1818 444 2 5.2420000000000000e-01 1.9258655135692731e+01 1.4892930272734924e+01 1.3212181660318633e+01 6 4 0
1816 444 1 -1.0484000000000000e+00 1.9653128372282310e+01 1.5488170356464110e+01 1.2574755494847627e+01 6 4 0
1878 444 2 5.2420000000000000e-01 1.5232383936774980e+01 1.4953788830392035e+01 1.4042423294656427e+01 -5 2 0
2084 444 2 5.2420000000000000e-01 1.6509468633488972e+01 1.6789382882724478e+01 1.4570065477724288e+01 -2 2 0
1155 444 2 5.2420000000000000e-01 2.1034288190418241e+01 1.4421688520120528e+01 9.4417382241174579e+00 -9 0 0
1008 444 2 5.2420000000000000e-01 1.7498597839011794e+01 1.5021031481455340e+01 9.8084612290489854e+00 -2 0 0
1877 444 2 5.2420000000000000e-01 1.5705106275054190e+01 1.4911565492892375e+01 1.5480007811445120e+01 -5 2 0
1876 444 1 -1.0484000000000000e+00 1.6024363124554799e+01 1.4903482382091861e+01 1.4577653103854871e+01 -5 2 0
2985 444 2 5.2420000000000000e-01 2.1887502482151696e+01 1.5941488769878786e+01 1.6599734866892959e+01 -4 1 0
1493 444 2 5.2420000000000000e-01 1.6438775005686725e+01 1.3126576655577439e+01 1.2759054658568052e+01 3 2 0
2088 444 2 5.2420000000000000e-01 1.6879300642640512e+01 1.3900574230945253e+01 1.7422353190034926e+01 3 -1 0
2086 444 1 -1.0484000000000000e+00 1.7612600539016025e+01 1.3292568500066583e+01 1.7516334290016008e+01 3 -1 0
845 444 2 5.2420000000000000e-01 2.0754276715303526e+01 1.3526007331817848e+01 1.6880502731307633e+01 6 8 0
844 444 1 -1.0484000000000000e+00 2.0429290820904306e+01 1.3034197084812879e+01 1.7634650552161819e+01 6 8 0
899 444 2 5.2420000000000000e-01 2.1277285695163211e+01 1.5783803765144771e+01 1.1830429404604773e+01 1 1 0
487 444 1 -1.0484000000000000e+00 1.5640081934430617e+01 1.4952592481228550e+01 1.7216146620391164e+01 -3 0 0
2132 444 2 5.2420000000000000e-01 2.1924400710789254e+01 1.4076145402917781e+01 1.4525922477363979e+01 -3 6 0
1006 444 1 -1.0484000000000000e+00 1.7670223142870228e+01 1.5745874618084418e+01 1.0409610619431572e+01 -2 0 0
1494 444 2 5.2420000000000000e-01 1.6153314857864583e+01 1.3520000153947226e+01 1.1325309311985624e+01 3 2 0
898 444 1 -1.0484000000000000e+00 2.2105690523487475e+01 1.6126501795737553e+01 1.1494964347114337e+01 1 1 0
920 444 2 5.2420000000000000e-01 1.5352572528613054e+01 1.7077859312254581e+01 8.9050993973637542e+00 1 -6 0
2274 444 2 5.2420000000000000e-01 1.8493143275729892e+01 1.7007130157817972e+01 1.7540100087995423e+01 -3 -2 0
1492 444 1 -1.0484000000000000e+00 1.6650747627596438e+01 1.2896445702091231e+01 1.1854433565383417e+01 3 2 0
1373 444 2 5.2420000000000000e-01 2.0911661971295537e+01 1.4066768638002442e+01 2.2703678617585673e+01 7 6 0
535 444 1 -1.0484000000000000e+00 1.7641338852060283e+01 1.2867526430113953e+01 2.0425259423265075e+01 5 1 0
988 444 1 -1.0484000000000000e+00 1.4980731537177805e+01 1.6743448158877513e+01 2.1596788985810736e+01 6 2 0
2095 444 1 -1.0484000000000000e+00 2.1642181912733793e+01 1.5630391629589564e+01 2.1704211431991943e+01 -4 1 0
2087 444 2 5.2420000000000000e-01 1.7634963438146489e+01 1.3086156093448261e+01 1.8450746235673243e+01 3 -1 0
489 444 2 5.2420000000000000e-01 1.5939288694583610e+01 1.5639755380014387e+01 1.7811558030764306e+01 -3 0 0
1450 444 1 -1.0484000000000000e+00 1.6303308594501413e+01 1.3551180411794478e+01 2.4462446318773271e+01 -3 6 0
478 444 1 -1.0484000000000000e+00 1.9721949137525936e+01 1.4980982932495365e+01 2.0087633609110370e+01 2 5 0
479 444 2 5.2420000000000000e-01 1.9409187537988359e+01 1.5590431289499023e+01 1.9419063943872548e+01 2 5 0
480 444 2 5.2420000000000000e-01 1.8936784385598678e+01 1.4740898324499282e+01 2.0579678430809494e+01 2 5 0
709 444 1 -1.0484000000000000e+00 1.7506559342224637e+01 1.4972355431809437e+01 2.2187274251582615e+01 4 -1 0
2097 444 2 5.2420000000000000e-01 2.0957785487616171e+01 1.5337376623488446e+01 2.1102567201584979e+01 -4 1 0
2417 444 2 5.2420000000000000e-01 2.0276359899138487e+01 1.5843919616184960e+01 2.5267066828794935e+01 5 -4 0
711 444 2 5.2420000000000000e-01 1.7404435755036111e+01 1.4650563766409887e+01 2.3082960236691445e+01 4 -1 0
1374 444 2 5.2420000000000000e-01 2.0314912535462163e+01 1.3970654945240218e+01 2.4091680086975295e+01 7 6 0
710 444 2 5.2420000000000000e-01 1.7668104158914712e+01 1.5910613569427808e+01 2.2286311216237014e+01 4 -1 0
2416 444 1 -1.0484000000000000e+00 2.0297853052708987e+01 1.4914286375364718e+01 2.5494117883631713e+01 5 -4 0
1451 444 2 5.2420000000000000e-01 1.6698289207511468e+01 1.3514458733264419e+01 2.5333580597751361e+01 -3 6 0
2418 444 2 5.2420000000000000e-01 2.1215086658936809e+01 1.4739916556107094e+01 2.5705091154003625e+01 5 -4 0
536 444 2 5.2420000000000000e-01 1.7504021842625242e+01 1.3599176671610834e+01 2.1026977061746479e+01 5 1 0
1372 444 1 -1.0484000000000000e+00 2.0512046088965008e+01 1.3447653317789323e+01 2.3314608729503689e+01 7 6 0
846 444 2 5.2420000000000000e-01 1.9755449849293338e+01 1.3597044120961865e+01 1.8015929716290298e+01 6 8 0
2984 444 2 5.2420000000000000e-01 2.1976445881797645e+01 1.6502946386776813e+01 1.8002856992260611e+01 -4 1 0
2272 444 1 -1.0484000000000000e+00 1.8515842464508840e+01 1.6576827396648707e+01 1.8394826321372815e+01 -3 -2 0
1970 444 2 5.2420000000000000e-01 2.1610476850766119e+01 1.6742443142910378e+01 2.0339301054894516e+01 -6 -1 0
2273 444 2 5.2420000000000000e-01 1.7731917764141389e+01 1.6893324366675131e+01 1.8843741441526287e+01 -3 -2 0
990 444 2 5.2420000000000000e-01 1.5292468999961969e+01 1.6923698467693971e+01 2.2483672338877380e+01 6 2 0
1682 444 2 5.2420000000000000e-01 1.5768992650389686e+01 1.7047859047569744e+01 2.5106961234077801e+01 4 3 0
1790 444 2 5.2420000000000000e-01 2.0150242327618049e+01 1.2878012046481505e+01 2.8290794006391707e+01 -5 -3 0
1267 444 1 -1.0484000000000000e+00 1.5693302509624072e+01 1.3634673840021904e+01 2.9834022852736421e+01 3 -6 0
302 444 2 5.2420000000000000e-01 1.9493082897580862e+01 1.5846252125171535e+01 3.0725390224014383e+01 -1 -2 0
1789 444 1 -1.0484000000000000e+00 2.0617524661799902e+01 1.3705547186822088e+01 2.8176488337784129e+01 -5 -3 0
819 444 2 5.2420000000000000e-01 1.5354667579960333e+01 1.5831419226178321e+01 2.9811932155523117e+01 1 2 0
1065 444 2 5.2420000000000000e-01 1.8143421453572991e+01 1.3622609473839754e+01 3.4991318301481947e+01 4 3 0
2805 444 2 5.2420000000000000e-01 2.2036407259420947e+01 1.3160519555114826e+01 2.7661855366010304e+01 1 9 0
494 444 2 5.2420000000000000e-01 2.1920090594931750e+01 1.5398653886182066e+01 3.4390293984574249e+01 -8 1 0
301 444 1 -1.0484000000000000e+00 1.8660931657352062e+01 1.6240068154220044e+01 3.0463348259583277e+01 -1 -2 0
1063 444 1 -1.0484000000000000e+00 1.9087330158689845e+01 1.3516077153124705e+01 3.4873339045459907e+01 4 3 0
1268 444 2 5.2420000000000000e-01 1.5735392732397159e+01 1.3364109525556504e+01 3.0751222790938748e+01 3 -6 0
1067 444 2 5.2420000000000000e-01 1.5447376592839564e+01 1.3886376732775787e+01 3.4986903179142089e+01 -2 0 0
1066 444 1 -1.0484000000000000e+00 1.6151835409348426e+01 1.3661924776643078e+01 3.4378963004336782e+01 -2 0 0
2925 444 2 5.2420000000000000e-01 1.9733388048247129e+01 1.5183200903570754e+01 3.4856431072047869e+01 -3 0 0
303 444 2 5.2420000000000000e-01 1.8113933800745571e+01 1.6189113141659167e+01 3.1247204054553610e+01 -1 -2 0
655 444 1 -1.0484000000000000e+00 2.1194267073333325e+01 1.4601281944721084e+01 3.0903413419692868e+01 1 8 0
1641 444 2 5.2420000000000000e-01 1.7764230399889552e+01 1.4195224716469776e+01 2.7250657868787872e+01 9 0 0
1639 444 1 -1.0484000000000000e+00 1.7105731982140288e+01 1.3501909408852127e+01 2.7294541621786845e+01 9 0 0
657 444 2 5.2420000000000000e-01 2.2122903182827653e+01 1.4789702038181584e+01 3.0767890338678669e+01 1 8 0
1791 444 2 5.2420000000000000e-01 2.0885121273755455e+01 1.3954242122802894e+01 2.9061234525469242e+01 -5 -3 0
1640 444 2 5.2420000000000000e-01 1.6735910449880233e+01 1.3577506948015230e+01 2.8174172127467802e+01 9 0 0
474 444 2 5.2420000000000000e-01 1.7252466144836649e+01 1.6319732493483514e+01 3.3412500652323772e+01 6 -5 0
1851 444 2 5.2420000000000000e-01 1.9229289688441273e+01 1.5782353479625012e+01 2.8567722302659558e+01 -6 -8 0
472 444 1 -1.0484000000000000e+00 1.7482677565627110e+01 1.5489341293320285e+01 3.2995745009311378e+01 6 -5 0
656 444 2 5.2420000000000000e-01 2.1182703504930998e+01 1.3929415743233099e+01 3.1585098129699357e+01 1 8 0
2923 444 1 -1.0484000000000000e+00 2.0286252215951404e+01 1.5962237573282211e+01 3.4917052741880859e+01 -3 0 0
473 444 2 5.2420000000000000e-01 1.6867477304988007e+01 1.4856340728077685e+01 3.3365978138041271e+01 6 -5 0
1849 444 1 -1.0484000000000000e+00 1.9190198090523328e+01 1.6125518385518774e+01 2.7675006292330561e+01 -6 -8 0
1850 444 2 5.2420000000000000e-01 1.9687420672635202e+01 1.5495289845072632e+01 2.7153647678336128e+01 -6 -8 0
817 444 1 -1.0484000000000000e+00 1.4891210422727607e+01 1.6668264316584839e+01 2.9845545745377265e+01 1 2 0
2001 444 2 5.2420000000000000e-01 1.8126834825436408e+01 1.6999883981422592e+01 2.6690700527959468e+01 -3 5 0
2696 444 2 5.2420000000000000e-01 1.8418632947566518e+01 1.2850391619619037e+01 2.9842771082964163e+01 1 1 0
1269 444 2 5.2420000000000000e-01 1.4840225317798197e+01 1.3323757774346019e+01 2.9531000139260694e+01 3 -6 0
818 444 2 5.2420000000000000e-01 1.4833267003118857e+01 1.6873192084062751e+01 3.0778754951369155e+01 1 2 0
967 444 1 -1.0484000000000000e+00 2.0601320188425788e+01 1.6802966742234474e+01 3.7545179676904390e+01 -9 -11 0
2924 444 2 5.2420000000000000e-01 2.0336142048001612e+01 1.6148748663550951e+01 3.5854579588593239e+01 -3 0 0
1064 444 2 5.2420000000000000e-01 1.9388371707222003e+01 1.3120956595525529e+01 3.5691560047076628e+01 4 3 0
968 444 2 5.2420000000000000e-01 2.1538526092670082e+01 1.6997334721048986e+01 3.7555095054734544e+01 -9 -11 0
2261 444 2 5.2420000000000000e-01 1.8262785184891015e+01 1.6490576335484512e+01 3.8539168349714004e+01 0 -7 0
311 444 2 5.2420000000000000e-01 1.6058040528273715e+01 1.7056595145035860e+01 3.7560539960774278e+01 5 -8 0
2809 444 1 -1.0484000000000000e+00 2.1280602904961615e+01 1.7776773991221418e+01 8.1310980811540166e+00 -11 -1 0
2740 444 1 -1.0484000000000000e+00 1.8342563129154840e+01 1.7808212411079506e+01 8.7511817600099366e+00 5 1 0
2741 444 2 5.2420000000000000e-01 1.9111130980534352e+01 1.7521953435756533e+01 8.2576320363296620e+00 5 1 0
663 444 2 5.2420000000000000e-01 1.7338267576460687e+01 2.1276016253966876e+01 7.6758768551874939e+00 -2 9 0
2811 444 2 5.2420000000000000e-01 2.2176824973724507e+01 1.7567464815526691e+01 7.8680236125182033e+00 -11 -1 0
53 444 2 5.2420000000000000e-01 1.5234311791727057e+01 2.0938153690446097e+01 8.7473251552909357e+00 -4 0 0
921 444 2 5.2420000000000000e-01 1.6534513108721079e+01 1.8018672940039711e+01 9.0040058025485266e+00 1 -6 0
2271 444 2 5.2420000000000000e-01 1.5774258436972222e+01 2.0242423845778035e+01 1.2588436908796865e+01 -4 2 0
337 444 1 -1.0484000000000000e+00 1.8834088673569568e+01 1.8023270730399005e+01 1.5978258700512363e+01 -4 5 0
339 444 2 5.2420000000000000e-01 1.8125315300865854e+01 1.8082220430838127e+01 1.5337636197713813e+01 -4 5 0
338 444 2 5.2420000000000000e-01 1.8954208226642240e+01 1.8921454200554525e+01 1.6286593029529111e+01 -4 5 0
2742 444 2 5.2420000000000000e-01 1.8620655536049970e+01 1.8617342190969950e+01 9.1803740388841728e+00 5 1 0
1034 444 2 5.2420000000000000e-01 2.1932977138684222e+01 1.9389502380972324e+01 9.1851632671531362e+00 -1 1 0
2270 444 2 5.2420000000000000e-01 1.6124266453299082e+01 1.8830545330895514e+01 1.3007950194522676e+01 -4 2 0
2269 444 1 -1.0484000000000000e+00 1.6238053862519287e+01 1.9458397535459593e+01 1.2294447022875255e+01 -4 2 0
1035 444 2 5.2420000000000000e-01 2.1825349731502911e+01 2.0271145762898502e+01 1.0411139300639666e+01 -1 1 0
2847 444 2 5.2420000000000000e-01 2.0353618424379565e+01 1.8047265757655126e+01 1.4845040364711709e+01 -2 -5 0
2083 444 1 -1.0484000000000000e+00 1.6380007646499653e+01 1.7737232448502770e+01 1.4537603461574788e+01 -2 2 0
1086 444 2 5.2420000000000000e-01 1.8691029477427453e+01 2.1023618960637499e+01 1.5417420066535216e+01 3 6 0
2085 444 2 5.2420000000000000e-01 1.5773393513163169e+01 1.7921295756070762e+01 1.5254801254729275e+01 -2 2 0
127 444 1 -1.0484000000000000e+00 2.2121583472254915e+01 2.0892265278921645e+01 1.4473272765096693e+01 -5 5 0
2845 444 1 -1.0484000000000000e+00 2.1050892934568619e+01 1.8346470641739273e+01 1.4261501759956621e+01 -2 -5 0
919 444 1 -1.0484000000000000e+00 1.5577481750576819e+01 1.8002189070946969e+01 9.0112271789525931e+00 1 -6 0
2814 444 2 5.2420000000000000e-01 2.0409807370803147e+01 2.0898448949251812e+01 1.2365546704632285e+01 0 2 0
2846 444 2 5.2420000000000000e-01 2.1231072504055685e+01 1.7594359863320815e+01 1.3697501120980892e+01 -2 -5 0
828 444 2 5.2420000000000000e-01 1.7953774216886440e+01 2.0995948301231685e+01 1.7394738965605928e+01 -3 -5 0
662 444 2 5.2420000000000000e-01 1.7421305019453982e+01 2.1014332170312514e+01 9.1646755343276762e+00 -2 9 0
128 444 2 5.2420000000000000e-01 2.1727347298557959e+01 2.0026992799776654e+01 1.4363211981631153e+01 -5 5 0
1084 444 1 -1.0484000000000000e+00 1.9369996706221357e+01 2.0688307540781317e+01 1.6002913027240655e+01 3 6 0
257 444 2 5.2420000000000000e-01 1.7588996142218001e+01 1.9897656025620311e+01 1.1071856428987918e+01 -10 -3 0
256 444 1 -1.0484000000000000e+00 1.8266012088033111e+01 1.9980681753167225e+01 1.0400299697402300e+01 -10 -3 0
258 444 2 5.2420000000000000e-01 1.9016350357804562e+01 2.0356054738563000e+01 1.0861081294414234e+01 -10 -3 0
2812 444 1 -1.0484000000000000e+00 2.0436497185272728e+01 2.1290747114259542e+01 1.1492837095036661e+01 0 2 0
1085 444 2 5.2420000000000000e-01 2.0186838185618925e+01 2.1041196376456206e+01 1.5650107091846486e+01 3 6 0
429 444 2 5.2420000000000000e-01 1.8993248508883571e+01 1.8074431124346770e+01 2.2487776331020335e+01 -3 -6 0
1471 444 1 -1.0484000000000000e+00 1.4834878049857116e+01 2.0225442748953277e+01 1.8254611625575368e+01 0 0 0
1934 444 2 5.2420000000000000e-01 1.9784219705294710e+01 1.7652009416539311e+01 2.4208943118971277e+01 2 -1 0
1652 444 2 5.2420000000000000e-01 1.5628515904137531e+01 2.0974370810659440e+01 2.6505590813531601e+01 5 -5 0
2190 444 2 5.2420000000000000e-01 1.4961574312066922e+01 1.9485424165319962e+01 2.4476107649880294e+01 5 0 0
1586 444 2 5.2420000000000000e-01 1.8319037417329369e+01 2.0767787730128457e+01 2.5557366669827317e+01 3 -1 0
1999 444 1 -1.0484000000000000e+00 1.7342060188885768e+01 1.7442831877605489e+01 2.6367962572727166e+01 -3 5 0
1969 444 1 -1.0484000000000000e+00 2.1642868424802003e+01 1.7481114427397127e+01 1.9731396263780908e+01 -6 -1 0
1473 444 2 5.2420000000000000e-01 1.5617058117713999e+01 2.0765425800297351e+01 1.8141273341387752e+01 0 0 0
101 444 2 5.2420000000000000e-01 2.1516703501742487e+01 1.9212566200079078e+01 2.2026494377032481e+01 1 5 0
1935 444 2 5.2420000000000000e-01 2.0997479576376609e+01 1.8399306029808827e+01 2.4720259380301009e+01 2 -1 0
21 444 2 5.2420000000000000e-01 1.9145961488020667e+01 1.8895831961131048e+01 1.8879631437499427e+01 -1 -7 0
1351 444 1 -1.0484000000000000e+00 1.5994493785816683e+01 1.7583447582490830e+01 1.9140935321032245e+01 1 4 0
102 444 2 5.2420000000000000e-01 2.0102378216790132e+01 1.9615886769370992e+01 2.1667451197391877e+01 1 5 0
11 444 2 5.2420000000000000e-01 1.7154401789418973e+01 2.1258287947643311e+01 2.1374918681805173e+01 2 -2 0
1587 444 2 5.2420000000000000e-01 1.7252144272582445e+01 2.0376200207187974e+01 2.4557219841939588e+01 3 -1 0
1585 444 1 -1.0484000000000000e+00 1.7723417876781557e+01 2.0055089792516068e+01 2.5325998867910307e+01 3 -1 0
100 444 1 -1.0484000000000000e+00 2.0601283106915385e+01 1.8974578318950723e+01 2.2173464717036030e+01 1 5 0
1352 444 2 5.2420000000000000e-01 1.5591360879563009e+01 1.8305785605332535e+01 1.8659329722776878e+01 1 4 0
10 444 1 -1.0484000000000000e+00 1.7787144723283753e+01 2.0554204812401739e+01 2.1516818823131203e+01 2 -2 0
1353 444 2 5.2420000000000000e-01 1.5626408400963857e+01 1.7647573722771110e+01 2.0022203710444160e+01 1 4 0
1681 444 1 -1.0484000000000000e+00 1.5201685125656571e+01 1.7430249222570918e+01 2.4437504007856070e+01 4 3 0
20 444 2 5.2420000000000000e-01 1.8488177334123012e+01 1.9887434600936128e+01 1.9815548295881950e+01 -1 -7 0
19 444 1 -1.0484000000000000e+00 1.9199254559808871e+01 1.9803002615454567e+01 1.9180352925709922e+01 -1 -7 0
12 444 2 5.2420000000000000e-01 1.8558687283411818e+01 2.0993426647088828e+01 2.1874645371328782e+01 2 -2 0
2000 444 2 5.2420000000000000e-01 1.7667578290259215e+01 1.8254316475318380e+01 2.5978394143395565e+01 -3 5 0
1933 444 1 -1.0484000000000000e+00 2.0450657087590486e+01 1.7633533251494114e+01 2.4895785686326068e+01 2 -1 0
427 444 1 -1.0484000000000000e+00 1.8359324150524106e+01 1.7496740964313126e+01 2.2912801718905971e+01 -3 -6 0
428 444 2 5.2420000000000000e-01 1.7750017584923206e+01 1.8090477496431916e+01 2.3351498078246347e+01 -3 -6 0
1971 444 2 5.2420000000000000e-01 2.1385455959593585e+01 1.8237356984840247e+01 2.0258718033654127e+01 -6 -1 0
1653 444 2 5.2420000000000000e-01 1.4906003250137852e+01 2.0531611027529301e+01 2.7760116444018959e+01 5 -5 0
2528 444 2 5.2420000000000000e-01 1.9773870347512737e+01 1.7374784358026709e+01 3.3883106197807436e+01 -15 0 0
2529 444 2 5.2420000000000000e-01 2.0201404365084578e+01 1.8213884518178070e+01 3.2697769193880895e+01 -15 0 0
1015 444 1 -1.0484000000000000e+00 2.1490175372879758e+01 1.8588976223113619e+01 2.8772320238219201e+01 -8 0 0
1017 444 2 5.2420000000000000e-01 2.0863992745986955e+01 1.7949358072367939e+01 2.8433180316021939e+01 -8 0 0
1088 444 2 5.2420000000000000e-01 2.1182433395206328e+01 1.8897974291969561e+01 3.0350653754610526e+01 0 -16 0
2146 444 1 -1.0484000000000000e+00 1.8637208110364572e+01 2.0755861616095334e+01 2.9050150201337804e+01 -2 4 0
58 444 1 -1.0484000000000000e+00 2.1014677695547050e+01 1.9865329221341518e+01 3.4993476071861302e+01 -3 1 0
1651 444 1 -1.0484000000000000e+00 1.5406107518576764e+01 2.1259907654115207e+01 2.7391725752315907e+01 5 -5 0
1453 444 1 -1.0484000000000000e+00 1.7864799314159505e+01 2.0769033694034547e+01 3.2496216287066325e+01 -1 1 0
2492 444 2 5.2420000000000000e-01 1.6464843495453465e+01 1.9117321372613628e+01 3.0443021933011316e+01 -3 6 0
2493 444 2 5.2420000000000000e-01 1.5657301420490464e+01 1.8784412683459415e+01 3.1679526406006531e+01 -3 6 0
2971 444 1 -1.0484000000000000e+00 1.7261024167735883e+01 1.8239586263638444e+01 3.4736146661848935e+01 -5 4 0
1089 444 2 5.2420000000000000e-01 2.0652350609305536e+01 1.9848350373927200e+01 3.1403123618106882e+01 0 -16 0
347 444 2 5.2420000000000000e-01 1.7328022246619152e+01 1.8015440123476058e+01 2.8213686506756719e+01 0 -3 0
2973 444 2 5.2420000000000000e-01 1.7982267513362856e+01 1.8264513307300149e+01 3.4107323264172528e+01 -5 4 0
346 444 1 -1.0484000000000000e+00 1.7452731071721910e+01 1.8335487011069851e+01 2.9107134686677288e+01 0 -3 0
1454 444 2 5.2420000000000000e-01 1.8558472729399188e+01 2.0761364296201929e+01 3.1836678237103126e+01 -1 1 0
2527 444 1 -1.0484000000000000e+00 1.9601257367697063e+01 1.8207325962977155e+01 3.3443432308654614e+01 -15 0 0
2491 444 1 -1.0484000000000000e+00 1.5959408301148864e+01 1.9521239088994001e+01 3.1148442208221518e+01 -3 6 0
1455 444 2 5.2420000000000000e-01 1.7053570111986279e+01 2.0706316220282329e+01 3.1992027420616541e+01 -1 1 0
59 444 2 5.2420000000000000e-01 2.0658418937581168e+01 1.9227791156011662e+01 3.4374721846202355e+01 -3 1 0
2972 444 2 5.2420000000000000e-01 1.6609886797947162e+01 1.8843221755952840e+01 3.4378548662393150e+01 -5 4 0
348 444 2 5.2420000000000000e-01 1.7971841183121740e+01 1.7654906841526703e+01 2.9535582211295246e+01 0 -3 0
1087 444 1 -1.0484000000000000e+00 2.1156598953540893e+01 1.9041735462705422e+01 3.1296643839879103e+01 0 -16 0
2147 444 2 5.2420000000000000e-01 1.8081761287241520e+01 2.0001580782976433e+01 2.8853246386449428e+01 -2 4 0
2561 444 2 5.2420000000000000e-01 2.1845163674844624e+01 2.0568352257131121e+01 2.8789418423816809e+01 -4 2 0
1395 444 2 5.2420000000000000e-01 1.6369363650207838e+01 2.0755967371964992e+01 3.8458886573173011e+01 -2 -6 0
120 444 2 5.2420000000000000e-01 1.8547858879194109e+01 1.9859555351859051e+01 3.6956194375094732e+01 -7 -2 0
1394 444 2 5.2420000000000000e-01 1.6152208414958146e+01 2.1146538121502960e+01 3.7012444833514671e+01 -2 -6 0
118 444 1 -1.0484000000000000e+00 1.9026593950337013e+01 1.9071643019224251e+01 3.6698825478229253e+01 -7 -2 0
119 444 2 5.2420000000000000e-01 1.8485370695355659e+01 1.8674043056585059e+01 3.6016752463479961e+01 -7 -2 0
312 444 2 5.2420000000000000e-01 1.5795794143292616e+01 1.7626954531450423e+01 3.6182928656965039e+01 5 -8 0
2260 444 1 -1.0484000000000000e+00 1.7630999051153541e+01 1.7199128492045549e+01 3.8661775276295863e+01 0 -7 0
60 444 2 5.2420000000000000e-01 2.0415399259013142e+01 1.9836661161302281e+01 3.5739314845942836e+01 -3 1 0
310 444 1 -1.0484000000000000e+00 1.5362465694160472e+01 1.7416187442393760e+01 3.7009993245019103e+01 5 -8 0
969 444 2 5.2420000000000000e-01 2.0183186840080612e+01 1.7646163420417171e+01 3.7370778481289591e+01 -9 -11 0
1393 444 1 -1.0484000000000000e+00 1.6824067452458245e+01 2.0838389529450602e+01 3.7620624429610444e+01 -2 -6 0
2262 444 2 5.2420000000000000e-01 1.7992634459276484e+01 1.7932017263253268e+01 3.8163451679173214e+01 0 -7 0
661 444 1 -1.0484000000000000e+00 1.6885167846026572e+01 2.1448592758057629e+01 8.5011948843888536e+00 -2 9 0
715 444 1 -1.0484000000000000e+00 2.1919847676254534e+01 2.4639815559796496e+01 8.6765700396175749e+00 -4 0 0
716 444 2 5.2420000000000000e-01 2.1638115379598791e+01 2.4553179607315148e+01 7.7658816302023199e+00 -4 0 0
2235 444 2 5.2420000000000000e-01 1.6156549388339354e+01 2.3083439774469984e+01 9.1180712245765001e+00 -4 0 0
2813 444 2 5.2420000000000000e-01 2.0930369145073143e+01 2.2102351297249566e+01 1.1609550151409550e+01 0 2 0
2728 444 1 -1.0484000000000000e+00 1.9862972041385955e+01 2.4249233848663838e+01 1.6230625721529726e+01 -4 -1 0
332 444 2 5.2420000000000000e-01 1.9092102583032350e+01 2.3823988045661434e+01 1.4581056715087387e+01 1 -2 0
566 444 2 5.2420000000000000e-01 1.6873836532015307e+01 2.3976028132112489e+01 1.6912659824832193e+01 2 -2 0
331 444 1 -1.0484000000000000e+00 1.9221924818409715e+01 2.3352010938444202e+01 1.3758489927237537e+01 1 -2 0
2233 444 1 -1.0484000000000000e+00 1.6038328061222735e+01 2.3802157567735044e+01 9.7391190025492840e+00 -4 0 0
333 444 2 5.2420000000000000e-01 1.8356853570309532e+01 2.3341201710201087e+01 1.3348894606042009e+01 1 -2 0
2729 444 2 5.2420000000000000e-01 2.0684617990259728e+01 2.4122221701624831e+01 1.5756286344830240e+01 -4 -1 0
505 444 1 -1.0484000000000000e+00 1.6908740744148464e+01 2.3507012070458472e+01 1.2399500639354340e+01 1 0 0
506 444 2 5.2420000000000000e-01 1.6505181279579951e+01 2.4311116699693130e+01 1.2726285008249272e+01 1 0 0
507 444 2 5.2420000000000000e-01 1.6715540975832365e+01 2.3505366912808668e+01 1.1462001524012162e+01 1 0 0
565 444 1 -1.0484000000000000e+00 1.7153479370441072e+01 2.4506660065623350e+01 1.6166696153967802e+01 2 -2 0
2698 444 1 -1.0484000000000000e+00 1.5205521774876475e+01 2.4622703273085520e+01 1.4302104229732521e+01 3 -2 0
2699 444 2 5.2420000000000000e-01 1.5823047385826163e+01 2.4494133592673908e+01 1.5022079139083816e+01 3 -2 0
567 444 2 5.2420000000000000e-01 1.8107598982567552e+01 2.4536272824679692e+01 1.6237491886813018e+01 2 -2 0
2100 444 2 5.2420000000000000e-01 1.5732205659519328e+01 2.1565540903287079e+01 1.6319525414436146e+01 1 9 0
1478 444 2 5.2420000000000000e-01 1.5679557128430524e+01 2.2390986135014778e+01 1.2704747341911265e+01 -6 2 0
1477 444 1 -1.0484000000000000e+00 1.5005991032844086e+01 2.1737300535674663e+01 1.2892459405038185e+01 -6 2 0
2234 444 2 5.2420000000000000e-01 1.5104013898838938e+01 2.4005631591446061e+01 9.6956753653474586e+00 -4 0 0
2181 444 2 5.2420000000000000e-01 2.2010862796408116e+01 2.2723693589739103e+01 1.4378224424811204e+01 -8 -1 0
2098 444 1 -1.0484000000000000e+00 1.5039428242093637e+01 2.1622641125684080e+01 1.5661474188402408e+01 1 9 0
2730 444 2 5.2420000000000000e-01 1.9866569915092061e+01 2.3568403289614992e+01 1.6903447249492707e+01 -4 -1 0
826 444 1 -1.0484000000000000e+00 1.7103942703325131e+01 2.1435398998589648e+01 1.7424761398373683e+01 -3 -5 0
1571 444 2 5.2420000000000000e-01 1.7429676093627318e+01 2.5255121954834248e+01 9.3648606294056744e+00 -7 1 0
206 444 2 5.2420000000000000e-01 1.9532279527499483e+01 2.4972472822680860e+01 1.2759003077264023e+01 0 0 0
2576 444 2 5.2420000000000000e-01 2.2192544788798980e+01 2.3911849074887854e+01 1.0315341117443371e+01 -1 3 0
2875 444 1 -1.0484000000000000e+00 1.8541096937332807e+01 2.3689074988318854e+01 2.4011399121551246e+01 6 -1 0
1931 444 2 5.2420000000000000e-01 2.0891392985066574e+01 2.1431324768413948e+01 2.4029926474123577e+01 4 -4 0
1932 444 2 5.2420000000000000e-01 2.1075930959945172e+01 2.1717818670652960e+01 2.5504973292411076e+01 4 -4 0
1930 444 1 -1.0484000000000000e+00 2.1548931003154223e+01 2.1426344324251239e+01 2.4725520969579204e+01 4 -4 0
2062 444 1 -1.0484000000000000e+00 2.0194184522608992e+01 2.2636025664013268e+01 1.8399812305597020e+01 7 4 0
2094 444 2 5.2420000000000000e-01 1.7713446299785204e+01 2.5575588355977978e+01 2.0882493403964816e+01 -6 -5 0
2064 444 2 5.2420000000000000e-01 2.0182720648740311e+01 2.2936010575583321e+01 1.9308718458324268e+01 7 4 0
1607 444 2 5.2420000000000000e-01 2.0432525461757432e+01 2.2421140953319998e+01 2.1846269476679616e+01 3 -8 0
2313 444 2 5.2420000000000000e-01 2.1716499534160040e+01 2.4055283751930620e+01 2.0581574558240959e+01 6 2 0
2312 444 2 5.2420000000000000e-01 2.0385767257971423e+01 2.4404771018903485e+01 2.1213164769751863e+01 6 2 0
649 444 1 -1.0484000000000000e+00 1.5824787897702276e+01 2.3266269024769873e+01 2.4277334128561794e+01 7 2 0
650 444 2 5.2420000000000000e-01 1.5395097163875267e+01 2.4111994628305780e+01 2.4149479216935660e+01 7 2 0
2092 444 1 -1.0484000000000000e+00 1.8377257204197420e+01 2.5132329607466069e+01 2.0354185308103226e+01 -6 -5 0
2877 444 2 5.2420000000000000e-01 1.7597740293725913e+01 2.3528058356600482e+01 2.4030991810651795e+01 6 -1 0
2311 444 1 -1.0484000000000000e+00 2.0894266607675672e+01 2.3665832380047895e+01 2.0879053440416051e+01 6 2 0
651 444 2 5.2420000000000000e-01 1.5135081762965417e+01 2.2620832390550326e+01 2.4122578433541992e+01 7 2 0
1608 444 2 5.2420000000000000e-01 1.9342356779153533e+01 2.2486707580967831e+01 2.2894663166596001e+01 3 -8 0
2876 444 2 5.2420000000000000e-01 1.8756428647954564e+01 2.3962653444348295e+01 2.4903037569405733e+01 6 -1 0
1270 444 1 -1.0484000000000000e+00 1.6710762428649744e+01 2.2547167279177945e+01 1.9806267722388856e+01 1 6 0
1606 444 1 -1.0484000000000000e+00 2.0027178694107590e+01 2.1913867304388081e+01 2.2549547233599370e+01 3 -8 0
827 444 2 5.2420000000000000e-01 1.7081611650364596e+01 2.1856232881938816e+01 1.8284198521355574e+01 -3 -5 0
2063 444 2 5.2420000000000000e-01 2.0016344179527096e+01 2.1697095606999984e+01 1.8454724837644399e+01 7 4 0
290 444 2 5.2420000000000000e-01 2.1966960467115275e+01 2.1623397483146167e+01 1.8619402146287467e+01 5 0 0
1271 444 2 5.2420000000000000e-01 1.7133214656502695e+01 2.3387316461365099e+01 1.9984916704970907e+01 1 6 0
2415 444 2 5.2420000000000000e-01 2.1207363809289021e+01 2.5208909977929753e+01 2.4841476929795554e+01 -4 1 0
2413 444 1 -1.0484000000000000e+00 2.1366734937813156e+01 2.4992788522393599e+01 2.3922713523053950e+01 -4 1 0
2414 444 2 5.2420000000000000e-01 2.0525063942628840e+01 2.4667651453581975e+01 2.3603169801083052e+01 -4 1 0
1272 444 2 5.2420000000000000e-01 1.5777385680345965e+01 2.2715627666898136e+01 1.9935344572387713e+01 1 6 0
1030 444 1 -1.0484000000000000e+00 2.1505999323894748e+01 2.3745281991724028e+01 3.3560181455397199e+01 4 -1 0
1590 444 2 5.2420000000000000e-01 1.9490955165432528e+01 2.1504232857938682e+01 2.7808586503648243e+01 -6 5 0
1264 444 1 -1.0484000000000000e+00 1.6965343685582539e+01 2.2771763778460770e+01 2.9026469157663662e+01 -6 -1 0
1167 444 2 5.2420000000000000e-01 1.9759085697519257e+01 2.2119485363791593e+01 3.1976520182206080e+01 2 0 0
1158 444 2 5.2420000000000000e-01 2.1955821083195147e+01 2.5423650825384843e+01 3.3082662542845242e+01 -1 5 0
2562 444 2 5.2420000000000000e-01 2.1786559849376800e+01 2.2063097489233261e+01 2.8556614042557133e+01 -4 2 0
1265 444 2 5.2420000000000000e-01 1.7159758820633257e+01 2.3701749349214197e+01 2.8910011895400391e+01 -6 -1 0
1577 444 2 5.2420000000000000e-01 2.0223260409473134e+01 2.4122318259852690e+01 3.2046969203727357e+01 0 -5 0
1032 444 2 5.2420000000000000e-01 2.1004047012033851e+01 2.3656662092237603e+01 3.4370380643789169e+01 4 -1 0
963 444 2 5.2420000000000000e-01 1.9389906552316571e+01 2.5451246932321553e+01 2.6857753620530108e+01 10 0 0
1031 444 2 5.2420000000000000e-01 2.1489026365693970e+01 2.2871147725055867e+01 3.3170523212873384e+01 4 -1 0
1300 444 1 -1.0484000000000000e+00 1.6755360150773374e+01 2.5433123304863944e+01 2.8557216358732550e+01 -1 3 0
961 444 1 -1.0484000000000000e+00 1.8700875832219776e+01 2.4806211131408688e+01 2.6698384320208408e+01 10 0 0
1165 444 1 -1.0484000000000000e+00 2.0489360835273423e+01 2.1525504784566845e+01 3.1802977000229113e+01 2 0 0
83 444 2 5.2420000000000000e-01 1.6596488776625737e+01 2.5369214223952412e+01 3.2358362443413533e+01 1 0 0
1588 444 1 -1.0484000000000000e+00 1.9822014598646565e+01 2.2005950722843941e+01 2.7063662812358125e+01 -6 5 0
1212 444 2 5.2420000000000000e-01 1.9987681503108604e+01 2.4555049864784941e+01 2.9323546529136756e+01 6 2 0
799 444 1 -1.0484000000000000e+00 1.9263653557725643e+01 2.1987949955259079e+01 3.4789126265155112e+01 9 1 0
1266 444 2 5.2420000000000000e-01 1.6422134358441500e+01 2.2543836162045434e+01 2.8272012138874629e+01 -6 -1 0
1210 444 1 -1.0484000000000000e+00 2.0784069322272810e+01 2.4965677661807998e+01 2.8986822432836487e+01 6 2 0
801 444 2 5.2420000000000000e-01 1.8522651318622490e+01 2.1649237934001704e+01 3.4286709247294233e+01 9 1 0
82 444 1 -1.0484000000000000e+00 1.7237875313608949e+01 2.4942882266369587e+01 3.2926778498069339e+01 1 0 0
1810 444 1 -1.0484000000000000e+00 1.5107579913055096e+01 2.2855984817229075e+01 3.1311320056011755e+01 0 -1 0
84 444 2 5.2420000000000000e-01 1.7007266792759765e+01 2.5233556285673071e+01 3.3809139514762300e+01 1 0 0
1166 444 2 5.2420000000000000e-01 2.0750304746056621e+01 2.1722434020751866e+01 3.0903333077036272e+01 2 0 0
1578 444 2 5.2420000000000000e-01 1.8721740822635734e+01 2.4192275153401599e+01 3.2227090279308072e+01 0 -5 0
1576 444 1 -1.0484000000000000e+00 1.9397769949822848e+01 2.3927318570558626e+01 3.1603378095950529e+01 0 -5 0
1811 444 2 5.2420000000000000e-01 1.5116644085993155e+01 2.3802601332931911e+01 3.1452978596327359e+01 0 -1 0
1812 444 2 5.2420000000000000e-01 1.5916896085569878e+01 2.2677221822492299e+01 3.0832484316350943e+01 0 -1 0
962 444 2 5.2420000000000000e-01 1.7935852668601466e+01 2.5154072446070515e+01 2.7156603394730869e+01 10 0 0
1589 444 2 5.2420000000000000e-01 1.9577713471260491e+01 2.2911161259963198e+01 2.7256388574346492e+01 -6 5 0
2560 444 1 -1.0484000000000000e+00 2.1818699467546182e+01 2.1405995823640858e+01 2.9251895603507482e+01 -4 2 0
2148 444 2 5.2420000000000000e-01 1.8021905397890869e+01 2.1468909012488275e+01 2.9221023987674876e+01 -2 4 0
800 444 2 5.2420000000000000e-01 1.9981798612625472e+01 2.1386334448156418e+01 3.4592760336018465e+01 9 1 0
2986 444 1 -1.0484000000000000e+00 1.8978393398162059e+01 2.5429856001910508e+01 3.6719428395474701e+01 -8 -2 0
2552 444 2 5.2420000000000000e-01 1.8474496267478880e+01 2.2148286622711382e+01 3.7804577872744602e+01 -2 -4 0
177 444 2 5.2420000000000000e-01 1.5365709394146958e+01 2.5370429999540324e+01 3.6291792991911642e+01 2 0 0
2551 444 1 -1.0484000000000000e+00 1.8984488372641970e+01 2.2822671121901223e+01 3.7355862082606436e+01 -2 -4 0
2553 444 2 5.2420000000000000e-01 1.9089116669667135e+01 2.2490847715578134e+01 3.6464134339442552e+01 -2 -4 0
2988 444 2 5.2420000000000000e-01 1.9081986171789822e+01 2.4490548220719866e+01 3.6871748235877732e+01 -8 -2 0
1418 444 2 5.2420000000000000e-01 1.8775481976032747e+01 2.9567227596847030e+01 8.6064172155839920e+00 -1 1 0
2989 444 1 -1.0484000000000000e+00 2.1335101122126844e+01 2.9210937479356424e+01 1.0871709136620431e+01 -6 -3 0
2990 444 2 5.2420000000000000e-01 2.0901842880821761e+01 2.8395627870178032e+01 1.0619143276394672e+01 -6 -3 0
2993 444 2 5.2420000000000000e-01 2.0231933440396233e+01 2.6382484250233642e+01 1.0943558418877046e+01 -6 -1 0
1570 444 1 -1.0484000000000000e+00 1.7839915226164212e+01 2.6119808807093737e+01 9.3489604186849267e+00 -7 1 0
2569 444 1 -1.0484000000000000e+00 1.8740310410904147e+01 2.8110078896330730e+01 1.4149961134348764e+01 -4 3 0
2621 444 2 5.2420000000000000e-01 1.7012571955740160e+01 2.6763343880201532e+01 1.0751242698272026e+01 -9 -3 0
1530 444 2 5.2420000000000000e-01 1.6971189045778708e+01 2.7588689929158136e+01 1.7209071010429575e+01 1 7 0
1528 444 1 -1.0484000000000000e+00 1.6141680391471766e+01 2.7757117042470210e+01 1.6762102146714451e+01 1 7 0
1529 444 2 5.2420000000000000e-01 1.6234669183108629e+01 2.7325348415197180e+01 1.5912889921942918e+01 1 7 0
2571 444 2 5.2420000000000000e-01 1.9102391290244071e+01 2.7312942022604432e+01 1.3763046908115960e+01 -4 3 0
2570 444 2 5.2420000000000000e-01 1.7803753411684539e+01 2.7931575544316022e+01 1.4234987907931430e+01 -4 3 0
2620 444 1 -1.0484000000000000e+00 1.6356752772085020e+01 2.7114139606970042e+01 1.1353800163982648e+01 -9 -3 0
2622 444 2 5.2420000000000000e-01 1.6363017559278106e+01 2.8057641941848559e+01 1.1192567069998351e+01 -9 -3 0
2992 444 1 -1.0484000000000000e+00 2.0388357724508310e+01 2.6763490248115996e+01 1.0079499121217914e+01 -6 -1 0
2852 444 2 5.2420000000000000e-01 1.9328746955713562e+01 2.7152179840464406e+01 1.7354851174361919e+01 7 1 0
223 444 1 -1.0484000000000000e+00 1.6156457764249179e+01 2.7123697770904922e+01 1.3996592672231564e+01 9 2 0
1572 444 2 5.2420000000000000e-01 1.8762043468971850e+01 2.5951546911188117e+01 9.5428670473107182e+00 -7 1 0
205 444 1 -1.0484000000000000e+00 1.9805951167381057e+01 2.5880513250420762e+01 1.2629394829495791e+01 0 0 0
1601 444 2 5.2420000000000000e-01 1.8572331779096931e+01 2.9743519413862263e+01 1.5125886765459157e+01 1 -1 0
225 444 2 5.2420000000000000e-01 1.5834268191014980e+01 2.6269320847742179e+01 1.4283761439047497e+01 9 2 0
1143 444 2 5.2420000000000000e-01 2.0241364124928946e+01 2.8769035479999300e+01 1.6209184083211046e+01 5 7 0
1142 444 2 5.2420000000000000e-01 2.1073731633299531e+01 2.7742321163769393e+01 1.5470998490912070e+01 5 7 0
224 444 2 5.2420000000000000e-01 1.6144167248242159e+01 2.7075900674751736e+01 1.3040665721209214e+01 9 2 0
207 444 2 5.2420000000000000e-01 2.0523786939275841e+01 2.6005740675053136e+01 1.3250089474707593e+01 0 0 0
2962 444 1 -1.0484000000000000e+00 1.6548930752888790e+01 2.9712491888903738e+01 1.0976661618155422e+01 -1 -4 0
1141 444 1 -1.0484000000000000e+00 2.0825624947075514e+01 2.8024295652479999e+01 1.6351433539120841e+01 5 7 0
2994 444 2 5.2420000000000000e-01 2.1062775412720388e+01 2.6206810926806302e+01 9.6902680721671590e+00 -6 -1 0
1251 444 2 5.2420000000000000e-01 2.0931058605994835e+01 2.9791958938945459e+01 1.2274218147850579e+01 3 -1 0
1250 444 2 5.2420000000000000e-01 2.0026317842778635e+01 2.9637741071590096e+01 1.3478193390800381e+01 3 -1 0
1627 444 1 -1.0484000000000000e+00 2.2151000040196852e+01 2.6231266070924484e+01 1.4095108108610063e+01 -4 -4 0
2964 444 2 5.2420000000000000e-01 1.7335435169732520e+01 2.9627117846353819e+01 1.0437816596001467e+01 -1 -4 0
216 444 2 5.2420000000000000e-01 2.0072277762737464e+01 2.9272636184445609e+01 2.2978937177079843e+01 4 -3 0
2851 444 1 -1.0484000000000000e+00 1.8645128292408987e+01 2.7054746290009522e+01 1.8017727306684304e+01 7 1 0
2747 444 2 5.2420000000000000e-01 1.5224780552061956e+01 2.6692057091647548e+01 1.8328973766183768e+01 4 3 0
2748 444 2 5.2420000000000000e-01 1.5143516360811139e+01 2.6085246978608641e+01 1.9713558800562225e+01 4 3 0
43 444 1 -1.0484000000000000e+00 1.6062659596383455e+01 2.6190639921356301e+01 2.1468527373576013e+01 8 -3 0
490 444 1 -1.0484000000000000e+00 1.6515459674077842e+01 2.8822866202296801e+01 2.2436553460718507e+01 -1 1 0
492 444 2 5.2420000000000000e-01 1.5597628196535080e+01 2.9020722237560260e+01 2.2622753246502189e+01 -1 1 0
1193 444 2 5.2420000000000000e-01 1.5891166002347346e+01 2.7723460131210828e+01 2.6520114026114641e+01 -9 0 0
2853 444 2 5.2420000000000000e-01 1.8890668043197941e+01 2.7670717391749626e+01 1.8708033208017930e+01 7 1 0
45 444 2 5.2420000000000000e-01 1.5497657370503193e+01 2.5819153903223668e+01 2.2146025080043646e+01 8 -3 0
592 444 1 -1.0484000000000000e+00 1.9138894537651819e+01 2.8004567543618627e+01 2.0772338824168628e+01 5 2 0
594 444 2 5.2420000000000000e-01 1.8396364346891133e+01 2.8214181283179315e+01 2.1338857155219841e+01 5 2 0
593 444 2 5.2420000000000000e-01 1.9817207973194442e+01 2.7692602532022885e+01 2.1371339035831873e+01 5 2 0
2917 444 1 -1.0484000000000000e+00 2.1412906007476447e+01 2.7277433992571876e+01 2.2499866656891832e+01 -5 6 0
2918 444 2 5.2420000000000000e-01 2.1397831424995143e+01 2.6529492394645530e+01 2.3097017233307884e+01 -5 6 0
44 444 2 5.2420000000000000e-01 1.6288356765706254e+01 2.7061587667538877e+01 2.1795242683061854e+01 8 -3 0
1834 444 1 -1.0484000000000000e+00 2.1181402535065875e+01 2.6175048700465606e+01 2.6485830164328636e+01 2 -3 0
2489 444 2 5.2420000000000000e-01 2.1804676729312177e+01 2.8583119400875113e+01 1.7950475654370411e+01 4 0 0
491 444 2 5.2420000000000000e-01 1.6865675640453826e+01 2.9633691576683699e+01 2.2067577869550771e+01 -1 1 0
2093 444 2 5.2420000000000000e-01 1.8572978813288895e+01 2.5748503699524065e+01 1.9648313405695003e+01 -6 -5 0
387 444 2 5.2420000000000000e-01 2.2078615301986183e+01 2.9212313981581485e+01 2.9072639584517798e+01 -1 -2 0
1302 444 2 5.2420000000000000e-01 1.5875490864612580e+01 2.5781154291723599e+01 2.8412520171473037e+01 -1 3 0
1148 444 2 5.2420000000000000e-01 2.1891309891673679e+01 2.9347258197135176e+01 2.6674992780776019e+01 10 -4 0
1301 444 2 5.2420000000000000e-01 1.7272141041764161e+01 2.6192053619968746e+01 2.8827762307331056e+01 -1 3 0
2337 444 2 5.2420000000000000e-01 2.1095693537376928e+01 2.8838611043344464e+01 3.3682168049710263e+01 6 -5 0
385 444 1 -1.0484000000000000e+00 2.2080262658040290e+01 2.9458800030876994e+01 2.9997558336024262e+01 -1 -2 0
1194 444 2 5.2420000000000000e-01 1.5415897629720655e+01 2.8878010344399598e+01 2.7376285344835701e+01 -9 0 0
1192 444 1 -1.0484000000000000e+00 1.6109483589552550e+01 2.8221922912347875e+01 2.7307580977918061e+01 -9 0 0
1890 444 2 5.2420000000000000e-01 1.7747478866708512e+01 2.9114307573729416e+01 2.7203208769064997e+01 4 5 0
1615 444 1 -1.0484000000000000e+00 2.0770306009948179e+01 2.7143360147405495e+01 3.0576346820114271e+01 4 5 0
2343 444 2 5.2420000000000000e-01 1.6831230837168938e+01 2.7136142321335974e+01 3.5292528380232845e+01 11 3 0
28 444 1 -1.0484000000000000e+00 1.6116305243426346e+01 2.8647687570753234e+01 3.0930932087425347e+01 -5 -4 0
1147 444 1 -1.0484000000000000e+00 2.1554338774717575e+01 2.8627632089911934e+01 2.7208678755499687e+01 10 -4 0
1888 444 1 -1.0484000000000000e+00 1.8672062343034032e+01 2.9318601857226334e+01 2.7343359078180935e+01 4 5 0
2058 444 2 5.2420000000000000e-01 1.7075427593887234e+01 2.9158273857224415e+01 3.3773454899917098e+01 1 1 0
29 444 2 5.2420000000000000e-01 1.5743666315924546e+01 2.9404912217003243e+01 3.0479286388451246e+01 -5 -4 0
1654 444 1 -1.0484000000000000e+00 1.8360225975354130e+01 2.7839997569714843e+01 2.9477720210338354e+01 0 -6 0
1655 444 2 5.2420000000000000e-01 1.8547408816889103e+01 2.8399236803962555e+01 2.8723766564743965e+01 0 -6 0
1617 444 2 5.2420000000000000e-01 2.1175130459911582e+01 2.7973645654445971e+01 3.0325397857000894e+01 4 5 0
1048 444 1 -1.0484000000000000e+00 2.0246521315316024e+01 2.7500867894123925e+01 3.4875988380572267e+01 -3 6 0
1149 444 2 5.2420000000000000e-01 2.0668342728965943e+01 2.8900238979344117e+01 2.7447275443065781e+01 10 -4 0
1836 444 2 5.2420000000000000e-01 2.1251220140020479e+01 2.7092668137019743e+01 2.6749140130226646e+01 2 -3 0
2056 444 1 -1.0484000000000000e+00 1.7580167937327587e+01 2.9407727812971103e+01 3.2999347597032084e+01 1 1 0
1656 444 2 5.2420000000000000e-01 1.7553461816855695e+01 2.8198274473986551e+01 2.9847856831072512e+01 0 -6 0
2057 444 2 5.2420000000000000e-01 1.7061939475493070e+01 2.9086859580902562e+01 3.2261299189176029e+01 1 1 0
1616 444 2 5.2420000000000000e-01 1.9857391651525781e+01 2.7228736593829645e+01 3.0301518714954593e+01 4 5 0
30 444 2 5.2420000000000000e-01 1.5357203422980367e+01 2.8171328951187089e+01 3.1267204235988483e+01 -5 -4 0
1156 444 1 -1.0484000000000000e+00 2.2052125168516039e+01 2.6366848353638208e+01 3.2950989160301042e+01 -1 5 0
1049 444 2 5.2420000000000000e-01 2.0732403001351226e+01 2.6943349407796781e+01 3.4268266594951889e+01 -3 6 0
2335 444 1 -1.0484000000000000e+00 2.1601230186427131e+01 2.9629722900132212e+01 3.3495602053396361e+01 6 -5 0
1835 444 2 5.2420000000000000e-01 2.1316252993999445e+01 2.5682191227763948e+01 2.7295236664009924e+01 2 -3 0
2341 444 1 -1.0484000000000000e+00 1.6708320250138851e+01 2.6214131406564732e+01 3.5518406843122477e+01 11 3 0
1157 444 2 5.2420000000000000e-01 2.1538867674096206e+01 2.6553045613462128e+01 3.2164776059942248e+01 -1 5 0
1211 444 2 5.2420000000000000e-01 2.0878768334754689e+01 2.5765543247380045e+01 2.9504006587933841e+01 6 2 0
1050 444 2 5.2420000000000000e-01 2.0101795528441382e+01 2.6948984430533553e+01 3.5644566025968089e+01 -3 6 0
2342 444 2 5.2420000000000000e-01 1.7543792725600266e+01 2.5947596183066302e+01 3.5902044979183842e+01 11 3 0
750 444 2 5.2420000000000000e-01 1.5818110358785720e+01 2.9810530117709110e+01 3.6022920328446212e+01 -5 -5 0
2023 444 1 -1.0484000000000000e+00 1.8845013167800328e+01 2.9392345845812574e+01 3.6250304646212534e+01 -3 -9 0
748 444 1 -1.0484000000000000e+00 1.6283934094738953e+01 2.9087788347676160e+01 3.5602343402385912e+01 -5 -5 0
749 444 2 5.2420000000000000e-01 1.7208694404710855e+01 2.9266978541227637e+01 3.5772470766404290e+01 -5 -5 0
2987 444 2 5.2420000000000000e-01 1.8586953350663322e+01 2.5762237317482398e+01 3.7527221447591280e+01 -8 -2 0
2024 444 2 5.2420000000000000e-01 1.9482650352944859e+01 2.8813146024989479e+01 3.5832955614180563e+01 -3 -9 0
2025 444 2 5.2420000000000000e-01 1.9240348952314459e+01 2.9617306418035032e+01 3.7092524800620659e+01 -3 -9 0
2061 444 2 5.2420000000000000e-01 2.1026371602614798e+01 3.4169232558369977e+01 8.8859641455794947e+00 3 4 0
1238 444 2 5.2420000000000000e-01 1.9161758922070025e+01 3.3275700530257630e+01 1.2743353037149268e+01 -1 0 0
378 444 2 5.2420000000000000e-01 1.8161556770136400e+01 3.2027757654038567e+01 9.5485692879713397e+00 0 -1 0
2771 444 2 5.2420000000000000e-01 1.7600752121655315e+01 3.3503786473625610e+01 1.6806931340023404e+01 5 -1 0
2770 444 1 -1.0484000000000000e+00 1.7991685314814294e+01 3.3126121227936608e+01 1.6019040326745301e+01 5 -1 0
2219 444 2 5.2420000000000000e-01 2.0433897400886313e+01 3.2971764314410045e+01 1.7082270010647036e+01 -3 -6 0
2772 444 2 5.2420000000000000e-01 1.7244764659640417e+01 3.2829741088457503e+01 1.5498943877913787e+01 5 -1 0
1966 444 1 -1.0484000000000000e+00 1.5223670565154340e+01 3.0729490492581345e+01 1.6099949653061365e+01 3 -2 0
376 444 1 -1.0484000000000000e+00 1.7921380806514932e+01 3.2811474865879269e+01 1.0042871895872556e+01 0 -1 0
2289 444 2 5.2420000000000000e-01 2.2075009841588933e+01 3.2921115360308534e+01 1.5559623785513637e+01 -5 -2 0
1237 444 1 -1.0484000000000000e+00 1.9446091451929885e+01 3.2566974839394383e+01 1.2166207802952570e+01 -1 0 0
2968 444 1 -1.0484000000000000e+00 1.5528284502274543e+01 3.3193117831660423e+01 1.1344943036070358e+01 -4 2 0
1419 444 2 5.2420000000000000e-01 1.9598716089919563e+01 3.0033100354800613e+01 9.7884256468303334e+00 -1 1 0
2970 444 2 5.2420000000000000e-01 1.6330043441742429e+01 3.2937720140781089e+01 1.0888666727712486e+01 -4 2 0
1239 444 2 5.2420000000000000e-01 2.0157459300861223e+01 3.2139711752839027e+01 1.2643318352805201e+01 -1 0 0
1602 444 2 5.2420000000000000e-01 1.8724088232814982e+01 3.1167313424789842e+01 1.5617493489184209e+01 1 -1 0
784 444 1 -1.0484000000000000e+00 1.6274871837054111e+01 3.3107980546282135e+01 1.4198224475902505e+01 8 -6 0
786 444 2 5.2420000000000000e-01 1.5854425851921079e+01 3.3923369540160600e+01 1.4471352808387282e+01 8 -6 0
2220 444 2 5.2420000000000000e-01 1.9784367086155818e+01 3.3736697230462894e+01 1.5948742791582955e+01 -3 -6 0
1968 444 2 5.2420000000000000e-01 1.5864650248142663e+01 3.0094536290038171e+01 1.6419653271582586e+01 3 -2 0
377 444 2 5.2420000000000000e-01 1.8467383696297947e+01 3.2776532554109416e+01 1.0828296534146860e+01 0 -1 0
2969 444 2 5.2420000000000000e-01 1.4914970964205637e+01 3.3417462592735845e+01 1.0645122432326813e+01 -4 2 0
609 444 2 5.2420000000000000e-01 1.8186563814828617e+01 3.1464603136783463e+01 1.2637938777661004e+01 -2 -6 0
607 444 1 -1.0484000000000000e+00 1.7575435717663424e+01 3.0925905234434836e+01 1.3140492427753644e+01 -2 -6 0
608 444 2 5.2420000000000000e-01 1.6969613527190354e+01 3.1553877496906022e+01 1.3534018263034152e+01 -2 -6 0
2218 444 1 -1.0484000000000000e+00 2.0638321083812428e+01 3.3499975093288349e+01 1.6310623922611025e+01 -3 -6 0
2888 444 2 5.2420000000000000e-01 1.7889716521193197e+01 3.0505929642181592e+01 1.7769793654626053e+01 0 0 0
1600 444 1 -1.0484000000000000e+00 1.8904911500598434e+01 3.0259292852965462e+01 1.5860462328617540e+01 1 -1 0
1249 444 1 -1.0484000000000000e+00 2.0722139990587912e+01 3.0188794195524739e+01 1.3119858336647098e+01 3 -1 0
785 444 2 5.2420000000000000e-01 1.5959787752628223e+01 3.2962605974187369e+01 1.3306136610051983e+01 8 -6 0
2060 444 2 5.2420000000000000e-01 1.9551903358458553e+01 3.3943348498545951e+01 9.1444517044819715e+00 3 4 0
1417 444 1 -1.0484000000000000e+00 1.8840999079123723e+01 3.0269559709803151e+01 9.2534637900697980e+00 -1 1 0
437 444 2 5.2420000000000000e-01 1.6996361807829445e+01 3.4016347796397262e+01 9.2919818715639781e+00 3 -12 0
2963 444 2 5.2420000000000000e-01 1.6870563568582050e+01 3.0022095873475962e+01 1.1823378693465008e+01 -1 -4 0
214 444 1 -1.0484000000000000e+00 2.0051104942644468e+01 3.0229584702915879e+01 2.2973151794949139e+01 4 -3 0
1889 444 2 5.2420000000000000e-01 1.8881003858927485e+01 2.9962002947485363e+01 2.6666150548396171e+01 4 5 0
2267 444 2 5.2420000000000000e-01 1.8729463643479040e+01 3.0821010444277618e+01 2.1728217465453287e+01 2 3 0
513 444 2 5.2420000000000000e-01 2.2063263226369823e+01 3.0195330073599912e+01 2.0077641612169849e+01 1 1 0
2674 444 1 -1.0484000000000000e+00 1.6323546954298838e+01 3.2904313701894168e+01 2.3272790153894153e+01 3 -1 0
2676 444 2 5.2420000000000000e-01 1.6643618794407466e+01 3.3069604158014009e+01 2.4159618781387696e+01 3 -1 0
2887 444 1 -1.0484000000000000e+00 1.7886636710729164e+01 3.1163628805065063e+01 1.8465246642125592e+01 0 0 0
2675 444 2 5.2420000000000000e-01 1.6723830451019268e+01 3.2071001201464846e+01 2.3024606202727412e+01 3 -1 0
190 444 1 -1.0484000000000000e+00 1.9655403868827261e+01 3.1120912275022409e+01 2.5535293035585983e+01 4 -3 0
820 444 1 -1.0484000000000000e+00 1.7823415463007208e+01 3.3236358140199059e+01 2.5583946067642401e+01 4 -3 0
512 444 2 5.2420000000000000e-01 2.1474923172217995e+01 3.1581451325282469e+01 2.0233907898178433e+01 1 1 0
821 444 2 5.2420000000000000e-01 1.8501803167092969e+01 3.2566120249339733e+01 2.5666427623195055e+01 4 -3 0
511 444 1 -1.0484000000000000e+00 2.1827448174354579e+01 3.0847598801626571e+01 2.0737314829474194e+01 1 1 0
2266 444 1 -1.0484000000000000e+00 1.7812978609240641e+01 3.0964925067183334e+01 2.1492470427038711e+01 2 3 0
415 444 1 -1.0484000000000000e+00 2.0421495790305027e+01 3.2400089752606000e+01 1.8787681998098954e+01 -1 2 0
200 444 2 5.2420000000000000e-01 1.6083298625522151e+01 3.3042609377194580e+01 2.6459985446610336e+01 1 3 0
416 444 2 5.2420000000000000e-01 1.9645934966354435e+01 3.1842642029337188e+01 1.8724520076637376e+01 -1 2 0
191 444 2 5.2420000000000000e-01 1.9303398915674155e+01 3.0643262782973451e+01 2.4784176859950072e+01 4 -3 0
192 444 2 5.2420000000000000e-01 2.0604877286312664e+01 3.1083906152477471e+01 2.5419694872040669e+01 4 -3 0
2889 444 2 5.2420000000000000e-01 1.7474756609882864e+01 3.1930973548010687e+01 1.8068045121005021e+01 0 0 0
822 444 2 5.2420000000000000e-01 1.8134833366079896e+01 3.3961037521295005e+01 2.6126247460997842e+01 4 -3 0
417 444 2 5.2420000000000000e-01 2.0106750109972058e+01 3.3203014767203207e+01 1.9202987283624608e+01 -1 2 0
215 444 2 5.2420000000000000e-01 2.0779571901650019e+01 3.0482323096246802e+01 2.2405972944385038e+01 4 -3 0
2268 444 2 5.2420000000000000e-01 1.7777172906765749e+01 3.0792014973664610e+01 2.0551697850249685e+01 2 3 0
2921 444 2 5.2420000000000000e-01 1.7946136964657573e+01 3.3916680092720206e+01 2.2739316912495166e+01 2 -8 0
1332 444 2 5.2420000000000000e-01 1.5983639065441448e+01 3.4172849859842152e+01 1.8401059330770089e+01 6 2 0
1700 444 2 5.2420000000000000e-01 2.0918566374462447e+01 3.4080510977730391e+01 3.5206906595464496e+01 -4 4 0
2840 444 2 5.2420000000000000e-01 2.1746856083398210e+01 3.3422126174004823e+01 3.3334826906506599e+01 -9 -1 0
199 444 1 -1.0484000000000000e+00 1.5197586117783510e+01 3.2934819703884692e+01 2.6806579312349069e+01 1 3 0
701 444 2 5.2420000000000000e-01 1.5751119056491905e+01 3.3558804462445288e+01 3.5285669768999149e+01 2 -7 0
2126 444 2 5.2420000000000000e-01 1.5139001348140191e+01 3.0526653381001164e+01 2.8839880986095377e+01 -2 -5 0
1779 444 2 5.2420000000000000e-01 1.5550180415561147e+01 3.3797426697387188e+01 3.2600524816072664e+01 -12 8 0
2125 444 1 -1.0484000000000000e+00 1.5483319394690012e+01 3.0881843205797551e+01 2.9659343254607659e+01 -2 -5 0
770 444 2 5.2420000000000000e-01 1.9301506752222306e+01 3.3038536698046236e+01 3.1417881704228655e+01 -1 2 0
2029 444 1 -1.0484000000000000e+00 1.9658674739114062e+01 3.1411710838040289e+01 3.2797060317713644e+01 -1 -6 0
769 444 1 -1.0484000000000000e+00 1.9654834245565912e+01 3.3790610367541525e+01 3.0942720727378184e+01 -1 2 0
2031 444 2 5.2420000000000000e-01 1.9076493215400770e+01 3.0666201560693459e+01 3.2650388783968644e+01 -1 -6 0
2839 444 1 -1.0484000000000000e+00 2.1186964565195449e+01 3.4194261597419271e+01 3.3253824493044327e+01 -9 -1 0
771 444 2 5.2420000000000000e-01 2.0204326729573072e+01 3.3406320908293416e+01 3.0259630369162416e+01 -1 2 0
580 444 1 -1.0484000000000000e+00 1.8502813975080663e+01 3.2321823989471469e+01 3.5551746439986999e+01 5 -6 0
64 444 1 -1.0484000000000000e+00 1.7867030709767793e+01 3.2049520994528841e+01 2.8762458670814873e+01 -5 1 0
34 444 1 -1.0484000000000000e+00 2.0851567343818310e+01 3.1812148284858917e+01 2.9230388024408924e+01 -1 1 0
36 444 2 5.2420000000000000e-01 2.1329663960578909e+01 3.1066687507277077e+01 2.9593629661897005e+01 -1 1 0
65 444 2 5.2420000000000000e-01 1.8690522914768358e+01 3.1825541213446652e+01 2.9195963349964394e+01 -5 1 0
582 444 2 5.2420000000000000e-01 1.7564796413623149e+01 3.2510116495271163e+01 3.5521707658349243e+01 5 -6 0
35 444 2 5.2420000000000000e-01 2.1489487135497534e+01 3.2525754519862133e+01 2.9222851876734147e+01 -1 1 0
2030 444 2 5.2420000000000000e-01 1.9334192489663263e+01 3.1814809152554975e+01 3.3602327288138284e+01 -1 -6 0
66 444 2 5.2420000000000000e-01 1.8032126861202162e+01 3.2901837953039347e+01 2.8359306155735361e+01 -5 1 0
2127 444 2 5.2420000000000000e-01 1.6276007203598720e+01 3.1352880835845998e+01 2.9402432012527864e+01 -2 -5 0
1777 444 1 -1.0484000000000000e+00 1.5335402166180947e+01 3.3444610994983819e+01 3.3464019714494682e+01 -12 8 0
2841 444 2 5.2420000000000000e-01 2.0666583421073437e+01 3.4031886551345004e+01 3.2467014000632190e+01 -9 -1 0
2336 444 2 5.2420000000000000e-01 2.0953407146469196e+01 3.0259524036676396e+01 3.3179518120325724e+01 6 -5 0
1699 444 1 -1.0484000000000000e+00 2.0653889076775187e+01 3.4046310962751242e+01 3.6126149870891254e+01 -4 4 0
1701 444 2 5.2420000000000000e-01 1.9939502446364443e+01 3.3409551270769967e+01 3.6146663096409853e+01 -4 4 0
702 444 2 5.2420000000000000e-01 1.5245948766394550e+01 3.2405471886864376e+01 3.6126218623743526e+01 2 -7 0
700 444 1 -1.0484000000000000e+00 1.5934636933673735e+01 3.3069123504588937e+01 3.6087396435009531e+01 2 -7 0
581 444 2 5.2420000000000000e-01 1.8555173492083782e+01 3.1406621940796818e+01 3.5827238616121967e+01 5 -6 0
113 444 2 5.2420000000000000e-01 2.3496892684881189e+01 8.7653754327407740e-01 8.3087656487244370e+00 11 -8 0
114 444 2 5.2420000000000000e-01 2.3130806714591660e+01 2.3212327277895799e+00 8.0428091217872240e+00 11 -8 0
112 444 1 -1.0484000000000000e+00 2.3876764175363572e+01 1.7516785003917841e+00 8.2309267473691818e+00 11 -8 0
2452 444 1 -1.0484000000000000e+00 2.6472077985988445e+01 3.9924561819736883e+00 8.3461137479803202e+00 9 4 0
1178 444 2 5.2420000000000000e-01 2.8635581270409514e+01 1.8352514875385793e+00 7.8449707852068160e+00 -7 -8 0
1177 444 1 -1.0484000000000000e+00 2.9254321408419642e+01 1.7126649076494864e+00 8.5649465512603342e+00 -7 -8 0
2454 444 2 5.2420000000000000e-01 2.5760299940975671e+01 4.1347662658063973e+00 7.7221331535837487e+00 9 4 0
449 444 2 5.2420000000000000e-01 2.5596289876862997e+01 6.5594052406774650e-01 1.7141383981513719e+01 3 0 0
326 444 2 5.2420000000000000e-01 2.3444283400116205e+01 4.0064185164300818e+00 1.5566863988223597e+01 1 6 0
703 444 1 -1.0484000000000000e+00 2.2973152751387360e+01 3.2282588969708739e+00 1.2418270720999383e+01 -4 3 0
2045 444 2 5.2420000000000000e-01 2.5253004532184590e+01 1.4763724685493025e+00 9.4436349823436174e+00 1 2 0
704 444 2 5.2420000000000000e-01 2.3404031547875388e+01 2.6511767757559466e+00 1.3048787651414479e+01 -4 3 0
1341 444 2 5.2420000000000000e-01 2.5461167894799111e+01 1.5868742836305152e+00 1.3238741246580995e+01 2 3 0
705 444 2 5.2420000000000000e-01 2.2276155047275953e+01 2.6923742056373392e+00 1.2039781848169174e+01 -4 3 0
465 444 2 5.2420000000000000e-01 2.2895006136030215e+01 2.2720249770875385e+00 1.6281873549517876e+01 1 1 0
1440 444 2 5.2420000000000000e-01 2.8020916942306570e+01 4.0311080072930743e+00 1.0782925286134555e+01 4 2 0
1560 444 2 5.2420000000000000e-01 2.6908903746153939e+01 3.2419570722493485e+00 1.2933622152855317e+01 0 -1 0
1558 444 1 -1.0484000000000000e+00 2.6511235308351839e+01 3.2128528187548393e+00 1.3803820210151869e+01 0 -1 0
464 444 2 5.2420000000000000e-01 2.2530767668651315e+01 1.1233612167442562e+00 1.5365469030862897e+01 1 1 0
1740 444 2 5.2420000000000000e-01 2.2429502120152804e+01 3.8024002515433817e+00 9.3542640292256181e+00 -3 2 0
1439 444 2 5.2420000000000000e-01 2.6737484609985248e+01 3.2568898694986745e+00 1.0570126952857606e+01 4 2 0
1438 444 1 -1.0484000000000000e+00 2.7345505216455212e+01 3.5415737688512046e+00 1.1252401284600097e+01 4 2 0
463 444 1 -1.0484000000000000e+00 2.2754355385192166e+01 2.0540685412548658e+00 1.5360491401282001e+01 1 1 0
1339 444 1 -1.0484000000000000e+00 2.5099332106207125e+01 8.0955734597603934e-01 1.2813199165600878e+01 2 3 0
1366 444 1 -1.0484000000000000e+00 2.8870439672698808e+01 3.4529829747767806e+00 1.5052479042854547e+01 14 -3 0
2046 444 2 5.2420000000000000e-01 2.6377253144111343e+01 4.6497539191432524e-01 9.3726621247324093e+00 1 2 0
1368 444 2 5.2420000000000000e-01 2.9586995163473443e+01 2.8978652725052152e+00 1.4744867407626545e+01 14 -3 0
2409 444 2 5.2420000000000000e-01 2.9549802974604265e+01 3.0632267836156704e+00 9.7973026521661275e+00 0 3 0
1367 444 2 5.2420000000000000e-01 2.8087085051843843e+01 3.0793399534136983e+00 1.4648770642349131e+01 14 -3 0
1559 444 2 5.2420000000000000e-01 2.5983706342186096e+01 4.0100277911323738e+00 1.3853389742029927e+01 0 -1 0
263 444 2 5.2420000000000000e-01 2.5612322909639527e+01 1.4480181465343245e-01 1.4565971943095278e+01 -3 10 0
1340 444 2 5.2420000000000000e-01 2.5614727423767615e+01 7.1248329879898142e-01 1.2012464022557435e+01 2 3 0
2616 444 2 5.2420000000000000e-01 2.8673148543548461e+01 2.4686152444979119e+00 1.6567090192740661e+01 1 -4 0
2614 444 1 -1.0484000000000000e+00 2.8669797810094035e+01 1.9493686640441135e+00 1.7371207912935269e+01 1 -4 0
2044 444 1 -1.0484000000000000e+00 2.5929313148725246e+01 1.0577390884294200e+00 9.9761630821521745e+00 1 2 0
1727 444 2 5.2420000000000000e-01 2.3793151245986312e+01 4.1492304182790978e+00 1.1047446818604184e+01 4 7 0
1728 444 2 5.2420000000000000e-01 2.4462746736491095e+01 3.8304685616369949e+00 9.7276251472605075e+00 4 7 0
2615 444 2 5.2420000000000000e-01 2.9079880866899707e+01 2.5161139375302675e+00 1.8024556575330720e+01 1 -4 0
51 444 2 5.2420000000000000e-01 2.6358682570063184e+01 5.7742903373131393e-01 2.3582441298979127e+01 2 2 0
450 444 2 5.2420000000000000e-01 2.6199053003255532e+01 1.0224994419803977e+00 1.8480863949082934e+01 3 0 0
448 444 1 -1.0484000000000000e+00 2.5400534208089734e+01 6.8146380235838966e-01 1.8078005683472728e+01 3 0 0
1962 444 2 5.2420000000000000e-01 2.4238835417127934e+01 2.1699538723111598e+00 1.8377590946136191e+01 2 -2 0
1960 444 1 -1.0484000000000000e+00 2.3390631269569123e+01 2.5986732046893968e+00 1.8263649818664398e+01 2 -2 0
195 444 2 5.2420000000000000e-01 2.3280928212783145e+01 2.8843629617478759e+00 2.0258712929636474e+01 -5 -2 0
50 444 2 5.2420000000000000e-01 2.6009027389708070e+01 1.8494561735319623e+00 2.4325128460188694e+01 2 2 0
1462 444 1 -1.0484000000000000e+00 2.3156818459887244e+01 5.1807735882503847e-01 2.2520249855146243e+01 1 3 0
22 444 1 -1.0484000000000000e+00 2.8716952176445673e+01 1.8591441987810229e+00 2.4593053406771801e+01 -2 1 0
1961 444 2 5.2420000000000000e-01 2.3579504511982023e+01 3.5325570559573172e+00 1.8355414502976455e+01 2 -2 0
1583 444 2 5.2420000000000000e-01 2.7710450764776169e+01 3.4877502718611981e+00 2.4799924889924537e+01 4 2 0
23 444 2 5.2420000000000000e-01 2.8639268591158682e+01 1.6487091488757717e+00 2.3662508285380305e+01 -2 1 0
193 444 1 -1.0484000000000000e+00 2.3068487980249834e+01 3.2256681941508809e+00 2.1127397318879009e+01 -5 -2 0
1729 444 1 -1.0484000000000000e+00 2.3314282379117522e+01 3.9973087308575086e+00 2.5060447364068178e+01 5 -3 0
2378 444 2 5.2420000000000000e-01 2.7893342720817888e+01 2.1746118875131089e+00 2.1282725851503216e+01 -2 5 0
2377 444 1 -1.0484000000000000e+00 2.8641206952456482e+01 1.7002307900100662e+00 2.1645900091373164e+01 -2 5 0
2215 444 1 -1.0484000000000000e+00 2.6483643599879773e+01 3.1855075320827733e+00 2.0821658121147653e+01 2 -2 0
1052 444 2 5.2420000000000000e-01 2.4413248900715264e+01 3.3596680991068997e+00 2.6148407726144807e+01 7 -1 0
194 444 2 5.2420000000000000e-01 2.2993395114771378e+01 2.4472261813815628e+00 2.1679322648877701e+01 -5 -2 0
1463 444 2 5.2420000000000000e-01 2.4016200439613549e+01 6.3341084386199253e-01 2.2925703563368042e+01 1 3 0
2217 444 2 5.2420000000000000e-01 2.5538443002698720e+01 3.0593798987176188e+00 2.0904842230365091e+01 2 -2 0
2474 444 2 5.2420000000000000e-01 2.8516821124380915e+01 3.6032380663028762e-01 2.5815603181302453e+01 -9 -4 0
2379 444 2 5.2420000000000000e-01 2.8784021141713932e+01 9.7527793448543121e-01 2.1037393978422994e+01 -2 5 0
1051 444 1 -1.0484000000000000e+00 2.5097480110618761e+01 2.8312469579182675e+00 2.6559297957760805e+01 7 -1 0
49 444 1 -1.0484000000000000e+00 2.5653589655815360e+01 1.2131534118799865e+00 2.3704632765051358e+01 2 2 0
1730 444 2 5.2420000000000000e-01 2.2399889604243803e+01 3.8999318876719844e+00 2.4794670288394478e+01 5 -3 0
2216 444 2 5.2420000000000000e-01 2.6576447590220759e+01 3.8841699732779733e+00 2.0173977503909573e+01 2 -2 0
1731 444 2 5.2420000000000000e-01 2.3795753401400464e+01 4.0814910165812890e+00 2.4237445937290502e+01 5 -3 0
2868 444 2 5.2420000000000000e-01 2.4501966053457441e+01 2.4323370814659476e-01 2.5318094705547214e+01 2 1 0
1337 444 2 5.2420000000000000e-01 2.3299514892527394e+01 3.6103271670215803e-01 2.9227801326218145e+01 3 -5 0
1814 444 2 5.2420000000000000e-01 2.5288627030194686e+01 9.8584941622605393e-01 2.8723988892639436e+01 -1 -3 0
497 444 2 5.2420000000000000e-01 2.4026034322025172e+01 2.0097897221543057e+00 3.4819620062569157e+01 -6 3 0
1296 444 2 5.2420000000000000e-01 2.3221180254972445e+01 4.0860183150237983e+00 3.1735890609658203e+01 7 -3 0
1356 444 2 5.2420000000000000e-01 2.3317409715182425e+01 1.4978489625089610e+00 3.1612156787279702e+01 0 -4 0
2499 444 2 5.2420000000000000e-01 2.7370252539317235e+01 9.7735596488369580e-01 3.3374071755445812e+01 -1 10 0
1815 444 2 5.2420000000000000e-01 2.4697226309258234e+01 1.4864426540943416e+00 2.7423394091442212e+01 -1 -3 0
496 444 1 -1.0484000000000000e+00 2.4768406822606121e+01 2.5886397287956409e+00 3.4646275460676286e+01 -6 3 0
238 444 1 -1.0484000000000000e+00 2.8704611405195990e+01 8.8850626177700176e-01 2.9049206212461105e+01 0 -3 0
1232 444 2 5.2420000000000000e-01 2.6885960086224554e+01 1.8846268805124362e+00 3.0916796399725708e+01 2 -2 0
712 444 1 -1.0484000000000000e+00 2.6822146752652955e+01 2.6853337999696429e+00 3.2781106765688698e+01 -4 2 0
1231 444 1 -1.0484000000000000e+00 2.6405321525503261e+01 2.0404512622097752e+00 3.0103815945967522e+01 2 -2 0
1354 444 1 -1.0484000000000000e+00 2.3707540440949618e+01 2.3069658719184405e+00 3.1281460742623285e+01 0 -4 0
1053 444 2 5.2420000000000000e-01 2.5807903252819603e+01 3.4495034966877514e+00 2.6730442781855928e+01 7 -1 0
239 444 2 5.2420000000000000e-01 2.7855452916734787e+01 1.3151282445648564e+00 2.9163904278030572e+01 0 -3 0
1233 444 2 5.2420000000000000e-01 2.6592818868322841e+01 2.9533381137230048e+00 2.9885380011131332e+01 2 -2 0
1355 444 2 5.2420000000000000e-01 2.4582245563186163e+01 2.0499237140589854e+00 3.0989823117248445e+01 0 -4 0
713 444 2 5.2420000000000000e-01 2.6868989740661565e+01 3.6314330611034986e+00 3.2643505896315382e+01 -4 2 0
714 444 2 5.2420000000000000e-01 2.6049683831751935e+01 2.5609760578050551e+00 3.3332531088617081e+01 -4 2 0
1813 444 1 -1.0484000000000000e+00 2.4674621543535395e+01 7.4622870716143785e-01 2.8029862783312808e+01 -1 -3 0
498 444 2 5.2420000000000000e-01 2.5190182900721329e+01 2.6997212626717224e+00 3.5498331309563952e+01 -6 3 0
2624 444 2 5.2420000000000000e-01 2.2471144119604048e+01 2.8523306357650697e+00 2.8963147718624953e+01 1 -2 0
240 444 2 5.2420000000000000e-01 2.8764656800202015e+01 2.7311936008275511e-01 2.9779908344499137e+01 0 -3 0
2497 444 1 -1.0484000000000000e+00 2.7274490437815324e+01 4.3741971789779704e-02 3.3562292660915297e+01 -1 10 0
2475 444 2 5.2420000000000000e-01 2.8813667583335956e+01 1.1780742408689093e-02 2.7258619321354995e+01 -9 -4 0
229 444 1 -1.0484000000000000e+00 2.6211231387589155e+01 3.5330789009526695e+00 3.6740851430513025e+01 -9 -4 0
553 444 1 -1.0484000000000000e+00 2.2724564294778418e+01 1.4710944629930183e+00 3.6094160257495773e+01 -3 2 0
1150 444 1 -1.0484000000000000e+00 2.4321035253470157e+01 7.9623433276915911e-01 3.8195016136313633e+01 2 2 0
1152 444 2 5.2420000000000000e-01 2.3804023657107891e+01 1.1271689639948292e+00 3.7460567713224741e+01 2 2 0
231 444 2 5.2420000000000000e-01 2.6465377036875950e+01 3.2299249804875196e+00 3.7612481981281171e+01 -9 -4 0
1151 444 2 5.2420000000000000e-01 2.4267367392061303e+01 1.4860949333677149e+00 3.8856411783426360e+01 2 2 0
555 444 2 5.2420000000000000e-01 2.2253183763600365e+01 2.2725905136591869e+00 3.6321397277042806e+01 -3 2 0
542 444 2 5.2420000000000000e-01 2.8561130485002838e+01 6.8568328253887625e+00 8.8882338164512955e+00 3 1 0
2453 444 2 5.2420000000000000e-01 2.6871505818920188e+01 4.8554377030527736e+00 8.4554480046754712e+00 9 4 0
1861 444 1 -1.0484000000000000e+00 2.5087204441636899e+01 6.9642352683958677e+00 8.8605885269187556e+00 -1 -1 0
543 444 2 5.2420000000000000e-01 2.8659832334106262e+01 5.3591118090004324e+00 9.0856809961697866e+00 3 1 0
541 444 1 -1.0484000000000000e+00 2.8026895850408081e+01 6.0747593858693714e+00 9.0267495638636692e+00 3 1 0
2457 444 2 5.2420000000000000e-01 2.5808021645679755e+01 6.6033151644178512e+00 1.2548997522335773e+01 0 -6 0
325 444 1 -1.0484000000000000e+00 2.3960279699498770e+01 4.8061607023683663e+00 1.5464921485925782e+01 1 6 0
777 444 2 5.2420000000000000e-01 2.6205590114984044e+01 7.8951849107640983e+00 1.6210531647584773e+01 5 -4 0
775 444 1 -1.0484000000000000e+00 2.6979434138435519e+01 8.3200282415325120e+00 1.5840523921839321e+01 5 -4 0
1862 444 2 5.2420000000000000e-01 2.5966285979090046e+01 7.0852473511713479e+00 9.2194816366658916e+00 -1 -1 0
2456 444 2 5.2420000000000000e-01 2.5734200360476958e+01 5.2501226624909982e+00 1.1874226463762138e+01 0 -6 0
2455 444 1 -1.0484000000000000e+00 2.5291547875497688e+01 5.7978423849774012e+00 1.2522527337424355e+01 0 -6 0
327 444 2 5.2420000000000000e-01 2.3752823137471946e+01 5.1148216733009431e+00 1.4582922412140151e+01 1 6 0
1646 444 2 5.2420000000000000e-01 2.8187154974253005e+01 8.2336813454883373e+00 1.2924277223898093e+01 1 5 0
1863 444 2 5.2420000000000000e-01 2.4779801561152741e+01 6.1454359222975707e+00 9.2495670076903771e+00 -1 -1 0
1647 444 2 5.2420000000000000e-01 2.8538087063209311e+01 6.7982842644484807e+00 1.2595069370046561e+01 1 5 0
1645 444 1 -1.0484000000000000e+00 2.7833233765697909e+01 7.3445119428944139e+00 1.2942990766398143e+01 1 5 0
2585 444 2 5.2420000000000000e-01 2.4590151433903547e+01 6.1496045755907938e+00 1.6515813197697540e+01 -3 -3 0
1677 444 2 5.2420000000000000e-01 2.8567131130359439e+01 6.7497829379440324e+00 1.5230622318589358e+01 -6 2 0
1675 444 1 -1.0484000000000000e+00 2.9313326603463231e+01 6.2080896068404998e+00 1.5487513769385215e+01 -6 2 0
2574 444 2 5.2420000000000000e-01 2.4016428100835558e+01 7.6837924159565949e+00 1.1383464333958967e+01 -5 -6 0
2586 444 2 5.2420000000000000e-01 2.4859240919972937e+01 6.9739478524003760e+00 1.7756758136433291e+01 -3 -3 0
2584 444 1 -1.0484000000000000e+00 2.4846450822943137e+01 7.0266207689294262e+00 1.6801094022951823e+01 -3 -3 0
1671 444 2 5.2420000000000000e-01 2.7833740180756315e+01 7.9822209434843296e+00 1.7587793538482750e+01 1 1 0
707 444 2 5.2420000000000000e-01 2.3020313136410557e+01 7.3863221058466300e+00 1.5439423085201140e+01 1 -2 0
1676 444 2 5.2420000000000000e-01 2.9015888370581333e+01 5.3088123730340362e+00 1.5349439587662085e+01 -6 2 0
1726 444 1 -1.0484000000000000e+00 2.4106818238735475e+01 4.5564502948503565e+00 1.0239970401320750e+01 4 7 0
368 444 2 5.2420000000000000e-01 2.2571356898691182e+01 4.9950109304261439e+00 1.2811428689372537e+01 2 3 0
1582 444 1 -1.0484000000000000e+00 2.7367296733537358e+01 4.3462167795856015e+00 2.5047943213661064e+01 4 2 0
2733 444 2 5.2420000000000000e-01 2.8046544580987060e+01 5.6697306034068271e+00 2.6118791844853792e+01 -3 1 0
1584 444 2 5.2420000000000000e-01 2.6744095924882721e+01 4.5648651895001686e+00 2.4355089364113269e+01 4 2 0
109 444 1 -1.0484000000000000e+00 2.7603044363813751e+01 5.3089301225306436e+00 1.8728915072705099e+01 -2 -10 0
2934 444 2 5.2420000000000000e-01 2.4356921220378119e+01 6.5118815402605401e+00 2.6440277154932154e+01 2 3 0
1323 444 2 5.2420000000000000e-01 2.6916665854091512e+01 6.0015953533793409e+00 2.1985563107168993e+01 -2 -2 0
2424 444 2 5.2420000000000000e-01 2.3619132132069414e+01 8.2487033518238686e+00 2.5141758094904137e+01 -3 5 0
1322 444 2 5.2420000000000000e-01 2.7518594707367367e+01 6.1897151006582378e+00 2.0609268069437192e+01 -2 -2 0
2308 444 1 -1.0484000000000000e+00 2.4584463698142976e+01 6.7153010954233405e+00 2.1104220816153013e+01 -3 -5 0
2819 444 2 5.2420000000000000e-01 2.4960684802438724e+01 5.6928323174351103e+00 2.4086122991386450e+01 8 10 0
2310 444 2 5.2420000000000000e-01 2.5017705649064638e+01 7.5122283483097716e+00 2.0798537923591240e+01 -3 -5 0
1140 444 2 5.2420000000000000e-01 2.8665673147421685e+01 7.4985709027348273e+00 2.5397294470895289e+01 0 -2 0
2732 444 2 5.2420000000000000e-01 2.9444919521957484e+01 6.0077301616760943e+00 2.6590171876834624e+01 -3 1 0
1321 444 1 -1.0484000000000000e+00 2.7753698534688677e+01 6.0206767543026825e+00 2.1521619002316594e+01 -2 -2 0
1138 444 1 -1.0484000000000000e+00 2.8734712297753919e+01 8.1119313799562303e+00 2.4665683373274881e+01 0 -2 0
2818 444 1 -1.0484000000000000e+00 2.5228530942183330e+01 5.1041479672314889e+00 2.3380472275602454e+01 8 10 0
1139 444 2 5.2420000000000000e-01 2.9095437036581551e+01 7.5905048544764639e+00 2.3948589017581700e+01 0 -2 0
2309 444 2 5.2420000000000000e-01 2.3656150800490362e+01 6.9457845986414517e+00 2.1140892471949360e+01 -3 -5 0
2065 444 1 -1.0484000000000000e+00 2.4783516628414436e+01 5.1202869354331675e+00 1.8942360131736958e+01 3 3 0
2932 444 1 -1.0484000000000000e+00 2.4990071870567650e+01 6.7389059036102203e+00 2.5759238317064401e+01 2 3 0
2933 444 2 5.2420000000000000e-01 2.5479039986471783e+01 7.4772055757869120e+00 2.6122633611032029e+01 2 3 0
110 444 2 5.2420000000000000e-01 2.7879291531931010e+01 6.2176633688122367e+00 1.8610073090623217e+01 -2 -10 0
1669 444 1 -1.0484000000000000e+00 2.8170770024886508e+01 7.9201290212233815e+00 1.8481543050455585e+01 1 1 0
111 444 2 5.2420000000000000e-01 2.8401883884498556e+01 4.8464357593423131e+00 1.8982265681110089e+01 -2 -10 0
2066 444 2 5.2420000000000000e-01 2.4648224385234261e+01 5.7433940049208037e+00 1.9656269799354259e+01 3 3 0
476 444 2 5.2420000000000000e-01 2.2863197357753350e+01 5.2107540495547013e+00 2.6606022418974536e+01 3 0 0
1670 444 2 5.2420000000000000e-01 2.9121111702079805e+01 7.8737749229963576e+00 1.8376976550767701e+01 1 1 0
2422 444 1 -1.0484000000000000e+00 2.2976748771933110e+01 8.4851375275758869e+00 2.4472673247779301e+01 -3 5 0
2067 444 2 5.2420000000000000e-01 2.5725216917110306e+01 5.1497386816568884e+00 1.8773343577358649e+01 3 3 0
2820 444 2 5.2420000000000000e-01 2.4753771003182063e+01 5.4196560208059861e+00 2.2611518500212561e+01 8 10 0
683 444 2 5.2420000000000000e-01 2.2412219876665461e+01 7.6776034243826174e+00 2.2617632675098790e+01 -1 -3 0
3 444 2 5.2420000000000000e-01 2.9169277072395850e+01 5.4030449288579065e+00 3.1328206337554956e+01 -2 3 0
2879 444 2 5.2420000000000000e-01 2.7812640578518288e+01 5.0745620789600059e+00 2.9185212665943922e+01 3 -2 0
2178 444 2 5.2420000000000000e-01 2.4114232521922951e+01 4.5759863147759283e+00 3.4558057581489436e+01 2 1 0
2878 444 1 -1.0484000000000000e+00 2.7033672629480964e+01 4.6494271173151906e+00 2.9543962487606887e+01 3 -2 0
978 444 2 5.2420000000000000e-01 2.2516112512196692e+01 7.6622678332264771e+00 3.1529112733555845e+01 2 7 0
375 444 2 5.2420000000000000e-01 2.7897690150945383e+01 5.9095186016877914e+00 3.3211724456340001e+01 -2 2 0
374 444 2 5.2420000000000000e-01 2.9261352561370852e+01 5.7801447255908043e+00 3.3856383324354155e+01 -2 2 0
2203 444 1 -1.0484000000000000e+00 2.2299717676676654e+01 8.0898879145621478e+00 3.3286444467394233e+01 -1 -7 0
475 444 1 -1.0484000000000000e+00 2.3055071610219109e+01 5.8152112316557796e+00 2.7322994023220680e+01 3 0 0
210 444 2 5.2420000000000000e-01 2.5664771731389486e+01 8.0461214876776204e+00 2.9142091727583814e+01 -5 0 0
373 444 1 -1.0484000000000000e+00 2.8734591883201453e+01 5.4526746586106780e+00 3.3127329773198269e+01 -2 2 0
1363 444 1 -1.0484000000000000e+00 2.4779615826717070e+01 6.4629377206611185e+00 2.9341856947428131e+01 -2 1 0
1365 444 2 5.2420000000000000e-01 2.4097574755264692e+01 6.8824962237617360e+00 2.9866283282452194e+01 -2 1 0
1837 444 1 -1.0484000000000000e+00 2.8951649761141578e+01 7.8971526607380333e+00 2.9185794885907722e+01 0 0 0
1838 444 2 5.2420000000000000e-01 2.9092203349171726e+01 7.5576216354540451e+00 2.8301942136004989e+01 0 0 0
1295 444 2 5.2420000000000000e-01 2.3312463372462101e+01 5.2047624350096457e+00 3.2751752475121762e+01 7 -3 0
1364 444 2 5.2420000000000000e-01 2.4301497915463234e+01 5.9867542138433461e+00 2.8662972244044155e+01 -2 1 0
2204 444 2 5.2420000000000000e-01 2.2861497861264951e+01 7.7746666713791219e+00 3.3994449624455640e+01 -1 -7 0
1839 444 2 5.2420000000000000e-01 2.8018294680243461e+01 8.1072337370030763e+00 2.9216569161112133e+01 0 0 0
349 444 1 -1.0484000000000000e+00 2.6052651311709752e+01 6.2388006697740321e+00 3.3431769028818785e+01 -8 1 0
350 444 2 5.2420000000000000e-01 2.5890409120512338e+01 7.0492089626334868e+00 3.2948913639472487e+01 -8 1 0
2177 444 2 5.2420000000000000e-01 2.2966133070238218e+01 5.4697382182250012e+00 3.4976354446474780e+01 2 1 0
2880 444 2 5.2420000000000000e-01 2.6313269192857895e+01 5.2373135148036241e+00 2.9316715846004755e+01 3 -2 0
2731 444 1 -1.0484000000000000e+00 2.8526717383493022e+01 6.2507933723454991e+00 2.6708734334129336e+01 -3 1 0
2176 444 1 -1.0484000000000000e+00 2.3748616129448539e+01 5.4506010526718605e+00 3.4425367236240788e+01 2 1 0
351 444 2 5.2420000000000000e-01 2.5180152331167424e+01 5.9054006284406384e+00 3.3641109738469304e+01 -8 1 0
1294 444 1 -1.0484000000000000e+00 2.2991610146348073e+01 5.0052177382865306e+00 3.1872282435184825e+01 7 -3 0
2195 444 2 5.2420000000000000e-01 2.6610566804832729e+01 6.4489246069442023e+00 3.5072385863347293e+01 0 0 0
477 444 2 5.2420000000000000e-01 2.2232101690773934e+01 6.2811564584537312e+00 2.7470807817879656e+01 3 0 0
976 444 1 -1.0484000000000000e+00 2.2424440092788203e+01 7.5626668639911916e+00 3.0581531939325416e+01 2 7 0
2034 444 2 5.2420000000000000e-01 2.5636246545958400e+01 8.2203195209209934e+00 3.5714761493998445e+01 0 -3 0
2194 444 1 -1.0484000000000000e+00 2.6975152679983573e+01 6.8729417308930634e+00 3.5849251499409498e+01 0 0 0
2196 444 2 5.2420000000000000e-01 2.7871473833654321e+01 7.0990934442400597e+00 3.5600864903332045e+01 0 0 0
230 444 2 5.2420000000000000e-01 2.6243433931641402e+01 4.4879065823145963e+00 3.6800004849474938e+01 -9 -4 0
732 444 2 5.2420000000000000e-01 2.5576086929540036e+01 1.0053041581509259e+01 8.4648356001031555e+00 -1 9 0
482 444 2 5.2420000000000000e-01 2.8008518941304413e+01 1.0326294145063160e+01 8.8705366676492936e+00 1 -3 0
481 444 1 -1.0484000000000000e+00 2.7123386103298028e+01 1.0666731830552717e+01 8.7406347970633647e+00 1 -3 0
730 444 1 -1.0484000000000000e+00 2.4653227353395412e+01 9.8098186433725960e+00 8.5383548706540804e+00 -1 9 0
731 444 2 5.2420000000000000e-01 2.4642100402125767e+01 8.8637340861546345e+00 8.3933282906621063e+00 -1 9 0
2187 444 2 5.2420000000000000e-01 2.8384381891602313e+01 1.2505395126761918e+01 8.2868137305414429e+00 8 -6 0
1710 444 2 5.2420000000000000e-01 2.2772274817594951e+01 1.0588212865451290e+01 8.4864074849188853e+00 4 6 0
2610 444 2 5.2420000000000000e-01 2.3210185933860757e+01 1.2424460850896844e+01 8.9127528008567634e+00 10 5 0
173 444 2 5.2420000000000000e-01 2.4902085794285700e+01 9.7844234157199690e+00 1.3140380810297328e+01 -2 -2 0
699 444 2 5.2420000000000000e-01 2.2764840161149177e+01 9.7191631426374752e+00 1.2383854671349260e+01 -5 -5 0
599 444 2 5.2420000000000000e-01 2.7595724267114793e+01 1.0252259624723127e+01 1.5903799209746548e+01 -3 -1 0
483 444 2 5.2420000000000000e-01 2.6982741870642123e+01 1.1257997524343994e+01 9.4801321514027030e+00 1 -3 0
2402 444 2 5.2420000000000000e-01 2.4857083204426196e+01 1.1810634894782320e+01 1.6448243898984277e+01 1 -2 0
652 444 1 -1.0484000000000000e+00 2.9513869741072202e+01 9.6628598895849933e+00 9.2023007766794596e+00 -2 -4 0
172 444 1 -1.0484000000000000e+00 2.5518317784489557e+01 9.8224170961235249e+00 1.3871849715348606e+01 -2 -2 0
598 444 1 -1.0484000000000000e+00 2.7826494010574550e+01 1.1166263976365757e+01 1.6069851140815551e+01 -3 -1 0
219 444 2 5.2420000000000000e-01 2.6946553165854993e+01 1.0005943751349818e+01 1.3027196139390258e+01 1 1 0
218 444 2 5.2420000000000000e-01 2.7666699800961624e+01 1.0859542832589817e+01 1.2005113383928750e+01 1 1 0
2403 444 2 5.2420000000000000e-01 2.6253694602424382e+01 1.2010207373527884e+01 1.5899114761396399e+01 1 -2 0
217 444 1 -1.0484000000000000e+00 2.7798471816840824e+01 1.0127984879516985e+01 1.2608181853590589e+01 1 1 0
2572 444 1 -1.0484000000000000e+00 2.4010239123346324e+01 8.6067711527955275e+00 1.1129882056338310e+01 -5 -6 0
174 444 2 5.2420000000000000e-01 2.5274360926483919e+01 1.0614779030276495e+01 1.4350263812404972e+01 -2 -2 0
2401 444 1 -1.0484000000000000e+00 2.5329644410649685e+01 1.2126194108677820e+01 1.5677958099113294e+01 1 -2 0
600 444 2 5.2420000000000000e-01 2.8656422224260236e+01 1.1121784313179809e+01 1.6544690735513239e+01 -3 -1 0
2573 444 2 5.2420000000000000e-01 2.4119576973652652e+01 8.5951460203798682e+00 1.0179018141101128e+01 -5 -6 0
366 444 2 5.2420000000000000e-01 2.8581130566082798e+01 1.2622927983268696e+01 1.5112704862753997e+01 -2 -2 0
697 444 1 -1.0484000000000000e+00 2.2510079810822791e+01 9.9060422583673589e+00 1.3287406516483056e+01 -5 -5 0
1409 444 2 5.2420000000000000e-01 2.9596394157550233e+01 1.0429197281231268e+01 1.3058889062053973e+01 2 8 0
2388 444 2 5.2420000000000000e-01 2.2643456964690866e+01 1.1798128585197766e+01 1.3374476544901411e+01 3 4 0
2386 444 1 -1.0484000000000000e+00 2.3034351633452427e+01 1.2603455258553351e+01 1.3713421375127794e+01 3 4 0
2387 444 2 5.2420000000000000e-01 2.3546987041755511e+01 1.2321086026805700e+01 1.4470854547253325e+01 3 4 0
934 444 1 -1.0484000000000000e+00 2.7347806655407595e+01 1.2214448115915124e+01 1.0841506606824247e+01 0 2 0
698 444 2 5.2420000000000000e-01 2.2676951179930274e+01 9.0891791756036273e+00 1.3757641954521782e+01 -5 -5 0
936 444 2 5.2420000000000000e-01 2.6464664564575003e+01 1.2569089244885971e+01 1.0944089421291061e+01 0 2 0
776 444 2 5.2420000000000000e-01 2.6706140439507728e+01 8.5968191579895343e+00 1.4965921468678678e+01 5 -4 0
2043 444 2 5.2420000000000000e-01 2.6752377907420829e+01 9.2215367815039002e+00 2.5273312551558824e+01 -1 3 0
2519 444 2 5.2420000000000000e-01 2.5860156592316851e+01 1.1688210875049444e+01 1.8657107957690364e+01 -2 5 0
2423 444 2 5.2420000000000000e-01 2.3227666459119483e+01 9.3678113196424437e+00 2.4200350734177160e+01 -3 5 0
1724 444 2 5.2420000000000000e-01 2.5312478886274608e+01 1.0930794200692471e+01 2.2470563293530304e+01 5 0 0
2832 444 2 5.2420000000000000e-01 2.3568793396452875e+01 1.1220473084688926e+01 1.8503339182786608e+01 0 5 0
2042 444 2 5.2420000000000000e-01 2.5415050746866878e+01 9.6998611526541207e+00 2.5797390632303966e+01 -1 3 0
2150 444 2 5.2420000000000000e-01 2.6485325182491490e+01 9.1183404565273332e+00 1.9656334553987264e+01 -1 3 0
1723 444 1 -1.0484000000000000e+00 2.4576235474756761e+01 1.0394697065145687e+01 2.2175982880023220e+01 5 0 0
1333 444 1 -1.0484000000000000e+00 2.2468564507533920e+01 1.1470525918288974e+01 2.3776783768125515e+01 -1 -1 0
2661 444 2 5.2420000000000000e-01 2.8360341333522509e+01 1.1116928085958108e+01 2.3019959087553925e+01 -5 4 0
1335 444 2 5.2420000000000000e-01 2.3165390294215886e+01 1.1571548885424336e+01 2.4425212718642314e+01 -1 -1 0
2019 444 2 5.2420000000000000e-01 2.7182820167021731e+01 1.1983525126208630e+01 2.4715250113783338e+01 -2 -2 0
2830 444 1 -1.0484000000000000e+00 2.4304740184098495e+01 1.1016599603716230e+01 1.7926234435981335e+01 0 5 0
313 444 1 -1.0484000000000000e+00 2.8973176150661349e+01 1.2405958500240352e+01 2.0438107718777538e+01 3 0 0
2017 444 1 -1.0484000000000000e+00 2.6898479519906115e+01 1.1818178349253296e+01 2.3816338058430016e+01 -2 -2 0
1725 444 2 5.2420000000000000e-01 2.3820441271441517e+01 1.0980487688573213e+01 2.2219068435946056e+01 5 0 0
2688 444 2 5.2420000000000000e-01 2.5258692523393449e+01 1.2020502579344605e+01 2.5746587446103241e+01 -1 6 0
2686 444 1 -1.0484000000000000e+00 2.4336125007902055e+01 1.1765361027030737e+01 2.5748649061371371e+01 -1 6 0
315 444 2 5.2420000000000000e-01 2.8074673163475545e+01 1.2240533430653533e+01 2.0152521308039095e+01 3 0 0
2831 444 2 5.2420000000000000e-01 2.4376271641639789e+01 1.0062554130715306e+01 1.7956440632015983e+01 0 5 0
2659 444 1 -1.0484000000000000e+00 2.9263486024016586e+01 1.0906204385108438e+01 2.2782984002069405e+01 -5 4 0
2149 444 1 -1.0484000000000000e+00 2.5590566405220184e+01 8.8760013004006133e+00 1.9894893813254850e+01 -1 3 0
2041 444 1 -1.0484000000000000e+00 2.6158067230208452e+01 9.1385949809303764e+00 2.6019065693037316e+01 -1 3 0
2518 444 1 -1.0484000000000000e+00 2.6399560947713233e+01 1.2369798782077101e+01 1.9057998754062886e+01 -2 5 0
2687 444 2 5.2420000000000000e-01 2.3936352530992732e+01 1.2315995092764796e+01 2.6421863516906967e+01 -1 6 0
314 444 2 5.2420000000000000e-01 2.9084149467451653e+01 1.1854638905218517e+01 2.1212681370437448e+01 3 0 0
211 444 1 -1.0484000000000000e+00 2.7914783991852335e+01 1.2477055704731194e+01 2.6188195306062852e+01 -11 5 0
2151 444 2 5.2420000000000000e-01 2.5418315458125928e+01 9.3594528260027712e+00 2.0702877091197479e+01 -1 3 0
2018 444 2 5.2420000000000000e-01 2.6937983709996654e+01 1.2674652812641151e+01 2.3390752849886482e+01 -2 -2 0
1860 444 2 5.2420000000000000e-01 2.3325095766903953e+01 1.2727506926133623e+01 2.1506565581533110e+01 10 7 0
721 444 1 -1.0484000000000000e+00 2.2256635451040300e+01 1.1722767140931641e+01 1.9351358079508035e+01 5 -10 0
2535 444 2 5.2420000000000000e-01 2.6618099079407269e+01 9.4203684635834506e+00 3.1650226452797291e+01 -3 4 0
2776 444 1 -1.0484000000000000e+00 2.2909003255578838e+01 1.2253992303345310e+01 3.4488029199887251e+01 -2 -2 0
863 444 2 5.2420000000000000e-01 2.7957878949871613e+01 9.2771621027634694e+00 3.4254484378318473e+01 -5 1 0
862 444 1 -1.0484000000000000e+00 2.8907939746377391e+01 9.3936814696863316e+00 3.4248161678285214e+01 -5 1 0
208 444 1 -1.0484000000000000e+00 2.6215230876448839e+01 8.7576858762220873e+00 2.8815129623612787e+01 -5 0 0
2281 444 1 -1.0484000000000000e+00 2.5703638650937684e+01 1.1384738489054186e+01 3.3366475419342542e+01 2 3 0
209 444 2 5.2420000000000000e-01 2.6170494636364420e+01 8.6773290661052709e+00 2.7862357846269965e+01 -5 0 0
2533 444 1 -1.0484000000000000e+00 2.6275199173998292e+01 8.9123675811681107e+00 3.2385472633985010e+01 -3 4 0
2778 444 2 5.2420000000000000e-01 2.2486301646951979e+01 1.1791222926430118e+01 3.3764564546234759e+01 -2 -2 0
806 444 2 5.2420000000000000e-01 2.4863268476392069e+01 1.1774076515329710e+01 2.9998353713356561e+01 4 7 0
805 444 1 -1.0484000000000000e+00 2.3972608319945870e+01 1.2046237909048502e+01 3.0219452441489668e+01 4 7 0
2777 444 2 5.2420000000000000e-01 2.3776325714529797e+01 1.1854506679336883e+01 3.4554329876179672e+01 -2 -2 0
2464 444 1 -1.0484000000000000e+00 2.9116512596504485e+01 1.1765043956184197e+01 2.8954536015110317e+01 -9 2 0
2283 444 2 5.2420000000000000e-01 2.5809739402213268e+01 1.1426365527941332e+01 3.2416084883468621e+01 2 3 0
2282 444 2 5.2420000000000000e-01 2.6267576654329890e+01 1.2081768644602572e+01 3.3701669629450521e+01 2 3 0
1803 444 2 5.2420000000000000e-01 2.6370170949075522e+01 1.0331129116591971e+01 2.9488225661407053e+01 -8 6 0
1802 444 2 5.2420000000000000e-01 2.7421557973093730e+01 1.1363670299726635e+01 2.9835125174675273e+01 -8 6 0
1801 444 1 -1.0484000000000000e+00 2.6545620435305928e+01 1.1064031334171144e+01 3.0078398270756253e+01 -8 6 0
1433 444 2 5.2420000000000000e-01 2.2722725255036995e+01 1.0850812156775952e+01 2.9742518554397677e+01 -5 4 0
2534 444 2 5.2420000000000000e-01 2.6046275814284158e+01 9.5680613419296243e+00 3.3044177958369779e+01 -3 4 0
864 444 2 5.2420000000000000e-01 2.9081128506126507e+01 9.9924531059692860e+00 3.4974598697365671e+01 -5 1 0
2465 444 2 5.2420000000000000e-01 2.8706577586003103e+01 1.1857217479907266e+01 2.8094483927916581e+01 -9 2 0
2517 444 2 5.2420000000000000e-01 2.5892892734719663e+01 9.6729874343671902e+00 3.8820110596419568e+01 1 -5 0
1278 444 2 5.2420000000000000e-01 2.2711031325828156e+01 1.2711713716546273e+01 3.7611320440299735e+01 -1 1 0
1950 444 2 5.2420000000000000e-01 2.8236265679595029e+01 1.2111595451447787e+01 3.5592728512296645e+01 -6 8 0
2516 444 2 5.2420000000000000e-01 2.5344461990655482e+01 1.1017497777895608e+01 3.8391842707474112e+01 1 -5 0
155 444 2 5.2420000000000000e-01 2.3657349490997216e+01 9.1927120279722665e+00 3.6366907794417749e+01 0 1 0
2033 444 2 5.2420000000000000e-01 2.5919220180976293e+01 9.5002150186499819e+00 3.6472184618918867e+01 0 -3 0
1948 444 1 -1.0484000000000000e+00 2.8401859946196065e+01 1.1389566007102589e+01 3.6198933301720857e+01 -6 8 0
154 444 1 -1.0484000000000000e+00 2.2894822743802301e+01 8.9033118741282458e+00 3.6867939859400593e+01 0 1 0
2515 444 1 -1.0484000000000000e+00 2.6051149963666624e+01 1.0396825761535744e+01 3.8214102707791348e+01 1 -5 0
2032 444 1 -1.0484000000000000e+00 2.5464566149927645e+01 9.1618947691964259e+00 3.5700782028106644e+01 0 -3 0
156 444 2 5.2420000000000000e-01 2.2380442331873891e+01 9.6991354541635566e+00 3.7003256308875173e+01 0 1 0
1949 444 2 5.2420000000000000e-01 2.7695497810080951e+01 1.1449429568827645e+01 3.6842129163251855e+01 -6 8 0
2185 444 1 -1.0484000000000000e+00 2.9154631251419953e+01 1.3060086246033258e+01 8.4103712298144870e+00 8 -6 0
2349 444 2 5.2420000000000000e-01 2.5973046559141576e+01 1.3768680395751293e+01 7.9390789405352402e+00 -6 -6 0
2609 444 2 5.2420000000000000e-01 2.3432564864050011e+01 1.3905889847393347e+01 8.6940950558755983e+00 10 5 0
2347 444 1 -1.0484000000000000e+00 2.6599176194203494e+01 1.4421158919207587e+01 8.2528711162482100e+00 -6 -6 0
2348 444 2 5.2420000000000000e-01 2.7444030588528580e+01 1.3971610757260335e+01 8.2339037185840827e+00 -6 -6 0
1940 444 2 5.2420000000000000e-01 2.3955453413070579e+01 1.4983600461471871e+01 1.6347809068625288e+01 1 -8 0
1309 444 1 -1.0484000000000000e+00 2.7446149438402720e+01 1.5066300421733473e+01 1.6513028186524199e+01 -1 -8 0
1310 444 2 5.2420000000000000e-01 2.7588721203741226e+01 1.5949563766868879e+01 1.6853250644205538e+01 -1 -8 0
1245 444 2 5.2420000000000000e-01 2.4458812558278257e+01 1.3225615615866312e+01 1.0764461469085045e+01 1 -1 0
2983 444 1 -1.0484000000000000e+00 2.2515534735330476e+01 1.6173072857203085e+01 1.7283969660419856e+01 -4 1 0
1844 444 2 5.2420000000000000e-01 2.5721639278037841e+01 1.4701292561703898e+01 1.2150741251275363e+01 -1 1 0
1845 444 2 5.2420000000000000e-01 2.5772739615745550e+01 1.5887219626104278e+01 1.1211134408290352e+01 -1 1 0
1843 444 1 -1.0484000000000000e+00 2.5924088561183812e+01 1.5636409384697199e+01 1.2122408033055237e+01 -1 1 0
1311 444 2 5.2420000000000000e-01 2.6510172775503644e+01 1.5033472882826958e+01 1.6315285355169163e+01 -1 -8 0
1243 444 1 -1.0484000000000000e+00 2.4875872019660932e+01 1.3304720265375503e+01 1.1622387904972635e+01 1 -1 0
1244 444 2 5.2420000000000000e-01 2.4190889008144431e+01 1.3062276290385775e+01 1.2245486406117314e+01 1 -1 0
1939 444 1 -1.0484000000000000e+00 2.4880636916823526e+01 1.4768438652726129e+01 1.6229599967566756e+01 1 -8 0
900 444 2 5.2420000000000000e-01 2.2747239410751057e+01 1.5907530750417623e+01 1.2170759430926907e+01 1 1 0
1941 444 2 5.2420000000000000e-01 2.4875328387483865e+01 1.3905388269379253e+01 1.5815657054859647e+01 1 -8 0
884 444 2 5.2420000000000000e-01 2.6162487130324958e+01 1.6082378320404171e+01 8.8954875785360699e+00 -8 -1 0
883 444 1 -1.0484000000000000e+00 2.5905352022487470e+01 1.6689700554375914e+01 9.5892265946563722e+00 -8 -1 0
595 444 1 -1.0484000000000000e+00 2.4053683787784784e+01 1.6646998769743824e+01 1.3428635668966065e+01 -6 6 0
1599 444 2 5.2420000000000000e-01 2.4927361030123883e+01 1.6819168081567767e+01 1.6637529886161889e+01 4 3 0
2775 444 2 5.2420000000000000e-01 2.9573607253941152e+01 1.4505824582748142e+01 9.2387518402436104e+00 -13 -2 0
365 444 2 5.2420000000000000e-01 2.8248327130758831e+01 1.4098599401267306e+01 1.5172132877146060e+01 -2 -2 0
2793 444 2 5.2420000000000000e-01 2.9231686403942195e+01 1.3780564182448931e+01 1.2920012657871400e+01 -6 -8 0
2608 444 1 -1.0484000000000000e+00 2.3865713165844660e+01 1.3114562905702654e+01 9.0141202149184796e+00 10 5 0
596 444 2 5.2420000000000000e-01 2.4764934398993212e+01 1.6227274371943679e+01 1.2944707969159655e+01 -6 6 0
2159 444 2 5.2420000000000000e-01 2.9089705775446991e+01 1.6787754323090823e+01 9.7107889686794735e+00 -3 2 0
364 444 1 -1.0484000000000000e+00 2.8644097020832582e+01 1.3434002300906307e+01 1.4608297919996311e+01 -2 -2 0
1059 444 2 5.2420000000000000e-01 2.8765301406744655e+01 1.4033164597209511e+01 1.7413952765136720e+01 -2 2 0
549 444 2 5.2420000000000000e-01 2.7210521328119381e+01 1.7051793634308542e+01 1.2360170991878322e+01 -7 -2 0
597 444 2 5.2420000000000000e-01 2.4345865031341333e+01 1.6638518836149260e+01 1.4340112605505841e+01 -6 6 0
935 444 2 5.2420000000000000e-01 2.7918223924145050e+01 1.2982983230661338e+01 1.0856031819144883e+01 0 2 0
2096 444 2 5.2420000000000000e-01 2.2384329058498849e+01 1.5053785702224525e+01 2.1522620829299441e+01 -4 1 0
390 444 2 5.2420000000000000e-01 2.4308876585755165e+01 1.4447788830622297e+01 1.8146746215306738e+01 4 -1 0
2520 444 2 5.2420000000000000e-01 2.5863519522398420e+01 1.3161170518234215e+01 1.9006785085657683e+01 -2 5 0
389 444 2 5.2420000000000000e-01 2.4617285778517434e+01 1.5492710163230148e+01 1.9197897693946203e+01 4 -1 0
812 444 2 5.2420000000000000e-01 2.5297383255982265e+01 1.3869657782694063e+01 2.1684155019369445e+01 -6 -2 0
388 444 1 -1.0484000000000000e+00 2.4514351956075554e+01 1.4548879818274777e+01 1.9076150856804663e+01 4 -1 0
813 444 2 5.2420000000000000e-01 2.5968142400096628e+01 1.4706886895033522e+01 2.2752342884610101e+01 -6 -2 0
1057 444 1 -1.0484000000000000e+00 2.9449902845209134e+01 1.3847531174945974e+01 1.8056677087434934e+01 -2 2 0
782 444 2 5.2420000000000000e-01 2.7988889450386264e+01 1.5828881727866065e+01 2.6252232629532411e+01 -2 -10 0
2361 444 2 5.2420000000000000e-01 2.9287019501254793e+01 1.5364803826446840e+01 2.2218384808926164e+01 -1 2 0
1058 444 2 5.2420000000000000e-01 2.9085578639127743e+01 1.3149069297489948e+01 1.8600415994564607e+01 -2 2 0
781 444 1 -1.0484000000000000e+00 2.7682539057340975e+01 1.6486696884639727e+01 2.5628004512045738e+01 -2 -10 0
1041 444 2 5.2420000000000000e-01 2.5136896510672607e+01 1.6306729064621056e+01 2.3597818955322765e+01 -5 -3 0
1040 444 2 5.2420000000000000e-01 2.6253285075306202e+01 1.5937649980816056e+01 2.4551419311123819e+01 -5 -3 0
2596 444 1 -1.0484000000000000e+00 2.3584971051803159e+01 1.5583299674119727e+01 2.6078898015597421e+01 0 -2 0
1039 444 1 -1.0484000000000000e+00 2.5412286301416216e+01 1.5628557264803362e+01 2.4214646704539533e+01 -5 -3 0
1045 444 1 -1.0484000000000000e+00 2.8515761593367063e+01 1.5521728240823837e+01 2.0616668375386364e+01 2 4 0
2598 444 2 5.2420000000000000e-01 2.4247633460188329e+01 1.5370858477366502e+01 2.5421645381498458e+01 0 -2 0
1859 444 2 5.2420000000000000e-01 2.3845106159332840e+01 1.3677551218706958e+01 2.0448784595451134e+01 10 7 0
1047 444 2 5.2420000000000000e-01 2.7766030546157644e+01 1.5036515148494050e+01 2.0961203037753101e+01 2 4 0
1046 444 2 5.2420000000000000e-01 2.8863017630588089e+01 1.4964191862020078e+01 1.9920393522212798e+01 2 4 0
2637 444 2 5.2420000000000000e-01 2.2647609193873908e+01 1.7043869434868611e+01 2.2227739972803235e+01 -1 -6 0
1858 444 1 -1.0484000000000000e+00 2.3546170376003811e+01 1.3646835035144518e+01 2.1357589223002627e+01 10 7 0
811 444 1 -1.0484000000000000e+00 2.6157002663136790e+01 1.4100044109216169e+01 2.2036587446997874e+01 -6 -2 0
212 444 2 5.2420000000000000e-01 2.8674274753950041e+01 1.2940187709643233e+01 2.5834762579555360e+01 -11 5 0
1487 444 2 5.2420000000000000e-01 2.7498553167651291e+01 1.3986262885484686e+01 3.4800893025284530e+01 -2 -6 0
2202 444 2 5.2420000000000000e-01 2.6012641163417943e+01 1.6304671075993962e+01 3.5224791955763664e+01 8 1 0
1544 444 2 5.2420000000000000e-01 2.8859178076734970e+01 1.4082866543685135e+01 3.1133708796740063e+01 -5 2 0
1623 444 2 5.2420000000000000e-01 2.9067025387073176e+01 1.6938717119243520e+01 3.3368375624172302e+01 -2 -3 0
1144 444 1 -1.0484000000000000e+00 2.9517183644906776e+01 1.2987329437253024e+01 3.2338604768068279e+01 -5 2 0
2803 444 1 -1.0484000000000000e+00 2.2991575612011470e+01 1.3116138666545975e+01 2.7705625695121608e+01 1 9 0
2436 444 2 5.2420000000000000e-01 2.3612627086705864e+01 1.6302101520502447e+01 3.1287214164878975e+01 6 1 0
2597 444 2 5.2420000000000000e-01 2.3603675451713563e+01 1.4843748196906798e+01 2.6686307469867021e+01 0 -2 0
1319 444 2 5.2420000000000000e-01 2.2994059976713132e+01 1.6961570848480825e+01 3.2930061631846584e+01 -2 -4 0
1488 444 2 5.2420000000000000e-01 2.8022682345189679e+01 1.3486557234565545e+01 3.3471427598496732e+01 -2 -6 0
2200 444 1 -1.0484000000000000e+00 2.6286316375693897e+01 1.7031700202984901e+01 3.4665539478627977e+01 8 1 0
1476 444 2 5.2420000000000000e-01 2.4047056407262080e+01 1.5173559878654466e+01 3.5395650212035406e+01 -8 8 0
1486 444 1 -1.0484000000000000e+00 2.7289819497721268e+01 1.3392254229218358e+01 3.4079910424837365e+01 -2 -6 0
1123 444 1 -1.0484000000000000e+00 2.5480762518435679e+01 1.6692078588335953e+01 2.8828617804086804e+01 0 1 0
1543 444 1 -1.0484000000000000e+00 2.8385560715532883e+01 1.4816239188695789e+01 3.0741174580515548e+01 -5 2 0
1621 444 1 -1.0484000000000000e+00 2.8256064769410628e+01 1.6859791234487261e+01 3.2866033917857180e+01 -2 -3 0
213 444 2 5.2420000000000000e-01 2.7533755988015997e+01 1.3087550021572016e+01 2.6819342338527896e+01 -11 5 0
1575 444 2 5.2420000000000000e-01 2.9297067498505680e+01 1.5494531704390686e+01 2.9263315557893606e+01 3 6 0
1124 444 2 5.2420000000000000e-01 2.4849453861451501e+01 1.6454577570490578e+01 2.9507790621611434e+01 0 1 0
1622 444 2 5.2420000000000000e-01 2.7560982561562533e+01 1.6920393902727088e+01 3.3521336654483505e+01 -2 -3 0
1545 444 2 5.2420000000000000e-01 2.8541477171863509e+01 1.5549039064146665e+01 3.1336931579996257e+01 -5 2 0
2718 444 2 5.2420000000000000e-01 2.6162865408129747e+01 1.5003302079656425e+01 2.8216861198296090e+01 -6 -9 0
493 444 1 -1.0484000000000000e+00 2.2728721170212221e+01 1.5046398271638935e+01 3.4018454407781341e+01 -8 1 0
2717 444 2 5.2420000000000000e-01 2.7106061895415813e+01 1.3992811144728563e+01 2.8834262855790389e+01 -6 -9 0
2716 444 1 -1.0484000000000000e+00 2.6635121273368089e+01 1.4193037976202385e+01 2.8025339879162082e+01 -6 -9 0
2948 444 2 5.2420000000000000e-01 2.5893929239464587e+01 1.4391369472779818e+01 3.2473014772162024e+01 2 2 0
2949 444 2 5.2420000000000000e-01 2.6710743782028228e+01 1.4421491034921237e+01 3.1198729606220184e+01 2 2 0
2947 444 1 -1.0484000000000000e+00 2.5809500988412246e+01 1.4439003965333974e+01 3.1520735873741824e+01 2 2 0
2435 444 2 5.2420000000000000e-01 2.4557871245671439e+01 1.5151057115780448e+01 3.1016094978253268e+01 6 1 0
2434 444 1 -1.0484000000000000e+00 2.3720875938958049e+01 1.5524354818431970e+01 3.0739834815241213e+01 6 1 0
495 444 2 5.2420000000000000e-01 2.2623664105083119e+01 1.4096493437245755e+01 3.4072082570169961e+01 -8 1 0
2804 444 2 5.2420000000000000e-01 2.3178647601599671e+01 1.2855827020935584e+01 2.8607553608407386e+01 1 9 0
807 444 2 5.2420000000000000e-01 2.4085948838201794e+01 1.2853136400458700e+01 3.0721748313950883e+01 4 7 0
1759 444 1 -1.0484000000000000e+00 2.7076428771823025e+01 1.5189668635622576e+01 3.6944919889472068e+01 6 -2 0
1760 444 2 5.2420000000000000e-01 2.6128143622803492e+01 1.5066094211251736e+01 3.6903487645016796e+01 6 -2 0
1276 444 1 -1.0484000000000000e+00 2.3178790644144723e+01 1.3495706924201286e+01 3.7899052193730256e+01 -1 1 0
1042 444 1 -1.0484000000000000e+00 2.9571644930514122e+01 1.4227312095676803e+01 3.5949755687810942e+01 2 6 0
1474 444 1 -1.0484000000000000e+00 2.4539624509262836e+01 1.5205405593792561e+01 3.6215768799448242e+01 -8 8 0
1475 444 2 5.2420000000000000e-01 2.3980825184550575e+01 1.4754834604628705e+01 3.6848983702922737e+01 -8 8 0
774 444 2 5.2420000000000000e-01 2.3885559133451057e+01 1.6954220509844301e+01 3.7011911951193980e+01 -1 -4 0
1044 444 2 5.2420000000000000e-01 2.8944376771593092e+01 1.4654966081506021e+01 3.6532747123407354e+01 2 6 0
1277 444 2 5.2420000000000000e-01 2.2764141122612770e+01 1.3731540927196871e+01 3.8728919728219211e+01 -1 1 0
1761 444 2 5.2420000000000000e-01 2.7196678339430576e+01 1.5923913837020850e+01 3.7547129164291775e+01 6 -2 0
2537 444 2 5.2420000000000000e-01 2.4953586425743513e+01 1.7984570230713345e+01 8.7389119320049300e+00 5 1 0
2536 444 1 -1.0484000000000000e+00 2.4452774834879101e+01 1.8594606810613080e+01 8.1973622367256382e+00 5 1 0
2340 444 2 5.2420000000000000e-01 2.6390233797521741e+01 2.0051933911944882e+01 8.4027366624091826e+00 0 -2 0
2538 444 2 5.2420000000000000e-01 2.3942258865062541e+01 1.9107936159179879e+01 8.8235401288832005e+00 5 1 0
2338 444 1 -1.0484000000000000e+00 2.6861331838085732e+01 2.0236213276507314e+01 9.2153497593387463e+00 0 -2 0
2339 444 2 5.2420000000000000e-01 2.7257498410148930e+01 1.9399353066380851e+01 9.4581445924135625e+00 0 -2 0
1195 444 1 -1.0484000000000000e+00 2.6309482188663434e+01 2.0486238699813963e+01 1.3057102746954316e+01 2 -4 0
1196 444 2 5.2420000000000000e-01 2.5613793496350272e+01 1.9957541592899155e+01 1.2666296013115069e+01 2 -4 0
548 444 2 5.2420000000000000e-01 2.7083824425976292e+01 1.8501621044331031e+01 1.2777118377260495e+01 -7 -2 0
547 444 1 -1.0484000000000000e+00 2.7510155377672532e+01 1.7932831640322600e+01 1.2136062528096142e+01 -7 -2 0
1224 444 2 5.2420000000000000e-01 2.2941533916764399e+01 1.8565086261473795e+01 1.6830592475754468e+01 -3 -4 0
129 444 2 5.2420000000000000e-01 2.3041435877291505e+01 2.0713770325784431e+01 1.4668831246841577e+01 -5 5 0
2315 444 2 5.2420000000000000e-01 2.3915775349330776e+01 1.8415592102512857e+01 1.2464796703215479e+01 4 14 0
764 444 2 5.2420000000000000e-01 2.9564476182332893e+01 2.0799226019379162e+01 1.3468520337892651e+01 4 5 0
1033 444 1 -1.0484000000000000e+00 2.2452986902101941e+01 1.9764115049394793e+01 9.8961402019073077e+00 -1 1 0
1222 444 1 -1.0484000000000000e+00 2.3400800366586694e+01 1.9287318993688835e+01 1.7259179068386057e+01 -3 -4 0
2743 444 1 -1.0484000000000000e+00 2.7845289343104422e+01 1.7582312484576011e+01 1.7388111133228804e+01 -1 3 0
1597 444 1 -1.0484000000000000e+00 2.5333973865118182e+01 1.7545055803947417e+01 1.6164258928568799e+01 4 3 0
2314 444 1 -1.0484000000000000e+00 2.3821594714001080e+01 1.9363742773119171e+01 1.2373293030797452e+01 4 14 0
933 444 2 5.2420000000000000e-01 2.7762784525459441e+01 1.9178686600896114e+01 1.6482204749088698e+01 5 -7 0
1598 444 2 5.2420000000000000e-01 2.6213698010795426e+01 1.7610917529293008e+01 1.6535715760381489e+01 4 3 0
2745 444 2 5.2420000000000000e-01 2.8800498375638323e+01 1.7531801628600434e+01 1.7423556229225994e+01 -1 3 0
1223 444 2 5.2420000000000000e-01 2.4087786982794331e+01 1.9535603399400511e+01 1.6640602475423105e+01 -3 -4 0
2160 444 2 5.2420000000000000e-01 2.8374424597931501e+01 1.7777443489950198e+01 1.0605654040659989e+01 -3 2 0
2316 444 2 5.2420000000000000e-01 2.3263371580929935e+01 1.9476320171860156e+01 1.1603912555001953e+01 4 14 0
885 444 2 5.2420000000000000e-01 2.6673748811250906e+01 1.7245668342700696e+01 9.7184478782342261e+00 -8 -1 0
1176 444 2 5.2420000000000000e-01 2.8562568130200386e+01 2.0889816565786425e+01 9.0645244717375579e+00 7 -1 0
2158 444 1 -1.0484000000000000e+00 2.8667687551545654e+01 1.7646872995264978e+01 9.7038890304499290e+00 -3 2 0
1197 444 2 5.2420000000000000e-01 2.6176520386629605e+01 2.1362659441943485e+01 1.2695937470970051e+01 2 -4 0
765 444 2 5.2420000000000000e-01 2.8963660326978822e+01 1.9916288021676174e+01 1.4541523957891931e+01 4 5 0
2433 444 2 5.2420000000000000e-01 2.5137384787814760e+01 2.0859255791812359e+01 1.4508509252162064e+01 -1 -4 0
932 444 2 5.2420000000000000e-01 2.6700134283701537e+01 2.0103797841918272e+01 1.5928273286519007e+01 5 -7 0
931 444 1 -1.0484000000000000e+00 2.7643903087151873e+01 2.0035728510504150e+01 1.6072840681467373e+01 5 -7 0
2431 444 1 -1.0484000000000000e+00 2.4802817432236573e+01 2.0873419720806748e+01 1.5405224102673603e+01 -1 -4 0
1174 444 1 -1.0484000000000000e+00 2.9385408028500386e+01 2.1318210795062033e+01 9.3004197277549618e+00 7 -1 0
620 444 2 5.2420000000000000e-01 2.8838606081165132e+01 2.0511795151332663e+01 2.0938202573384654e+01 7 2 0
842 444 2 5.2420000000000000e-01 2.4222618100769722e+01 1.9915592724925670e+01 2.4401900335942127e+01 3 9 0
2635 444 1 -1.0484000000000000e+00 2.3507386458319001e+01 1.7457543768241134e+01 2.2304482624850085e+01 -1 -6 0
291 444 2 5.2420000000000000e-01 2.2997410751842420e+01 2.0661049785319729e+01 1.8068081399804552e+01 5 0 0
2744 444 2 5.2420000000000000e-01 2.7595564126004916e+01 1.7989650666609567e+01 1.8217535609176842e+01 -1 3 0
2601 444 2 5.2420000000000000e-01 2.4086929814094297e+01 1.7337258857622210e+01 2.0455379544339095e+01 1 -4 0
2404 444 1 -1.0484000000000000e+00 2.7214200035204357e+01 1.8221362750281727e+01 1.9977589692380494e+01 1 2 0
2653 444 1 -1.0484000000000000e+00 2.7339576832244550e+01 1.7953115553486132e+01 2.3387360203086004e+01 6 1 0
790 444 1 -1.0484000000000000e+00 2.9208289544159715e+01 2.0620212252413371e+01 2.2894865757240272e+01 1 2 0
619 444 1 -1.0484000000000000e+00 2.8531004953451177e+01 2.0677632097046086e+01 2.0047073193422598e+01 7 2 0
621 444 2 5.2420000000000000e-01 2.7885876592960866e+01 1.9989572142912991e+01 1.9883932627886924e+01 7 2 0
904 444 1 -1.0484000000000000e+00 2.3030676714580309e+01 2.0203083539248631e+01 2.1230322332576723e+01 4 3 0
55 444 1 -1.0484000000000000e+00 2.6524032803380265e+01 1.8919154350307764e+01 2.6126103967941109e+01 -3 -3 0
304 444 1 -1.0484000000000000e+00 2.6126190578433590e+01 2.0206574901092470e+01 2.1880417327125276e+01 9 6 0
2588 444 2 5.2420000000000000e-01 2.6376667968763083e+01 2.1065151814019501e+01 2.3505465659263333e+01 -5 3 0
305 444 2 5.2420000000000000e-01 2.5182487726156022e+01 2.0099227870330129e+01 2.1761530736528833e+01 9 6 0
306 444 2 5.2420000000000000e-01 2.6428309541085920e+01 1.9351459998137173e+01 2.2186579948132540e+01 9 6 0
843 444 2 5.2420000000000000e-01 2.3544741484033413e+01 1.8858368003523402e+01 2.5247273154525175e+01 3 9 0
57 444 2 5.2420000000000000e-01 2.6505687828656573e+01 1.9188015058196850e+01 2.5207621589366475e+01 -3 -3 0
2587 444 1 -1.0484000000000000e+00 2.6989745877628533e+01 2.1190158527473923e+01 2.4229856524167538e+01 -5 3 0
791 444 2 5.2420000000000000e-01 2.8378706902375654e+01 2.0564349181312615e+01 2.3369108839786122e+01 1 2 0
841 444 1 -1.0484000000000000e+00 2.4025795019083120e+01 1.8979227643822313e+01 2.4428607972432218e+01 3 9 0
906 444 2 5.2420000000000000e-01 2.3268794523697903e+01 2.0519291703215455e+01 2.0358804013208054e+01 4 3 0
56 444 2 5.2420000000000000e-01 2.5613075508036296e+01 1.8710797282856138e+01 2.6333411159168737e+01 -3 -3 0
2405 444 2 5.2420000000000000e-01 2.6277946354903001e+01 1.8064466289749031e+01 1.9854933729795746e+01 1 2 0
2636 444 2 5.2420000000000000e-01 2.3442463897381828e+01 1.8002265281271473e+01 2.3088890985817251e+01 -1 -6 0
2655 444 2 5.2420000000000000e-01 2.8213791916569253e+01 1.8113983687613860e+01 2.3032252381731464e+01 6 1 0
2600 444 2 5.2420000000000000e-01 2.4133606146245530e+01 1.8003880618704386e+01 1.9096949515823297e+01 1 -4 0
2406 444 2 5.2420000000000000e-01 2.7594378534253593e+01 1.7347401454461231e+01 2.0066404275848583e+01 1 2 0
2599 444 1 -1.0484000000000000e+00 2.4616396464432022e+01 1.7399129884474078e+01 1.9660351886994217e+01 1 -4 0
2654 444 2 5.2420000000000000e-01 2.7497160385797965e+01 1.7515406239338432e+01 2.4223906956440967e+01 6 1 0
783 444 2 5.2420000000000000e-01 2.7422734898443043e+01 1.7230608739236171e+01 2.6171447414335116e+01 -2 -10 0
905 444 2 5.2420000000000000e-01 2.3066152353127606e+01 2.0981620447695949e+01 2.1786068357453772e+01 4 3 0
98 444 2 5.2420000000000000e-01 2.7484968134899365e+01 1.9508225649124689e+01 2.7547067893238914e+01 -6 -6 0
2201 444 2 5.2420000000000000e-01 2.6926448897247518e+01 1.7511210419029627e+01 3.5191403853729270e+01 8 1 0
1016 444 2 5.2420000000000000e-01 2.2284931017166024e+01 1.8441968615629239e+01 2.8259500380601590e+01 -8 0 0
1972 444 1 -1.0484000000000000e+00 2.3552216352880965e+01 1.7984443380700153e+01 2.7327680393910335e+01 -2 3 0
902 444 2 5.2420000000000000e-01 2.3077325916317704e+01 1.9421883087671503e+01 3.5043244482229440e+01 8 1 0
1825 444 1 -1.0484000000000000e+00 2.5258231293688695e+01 1.9659601716620184e+01 3.1274357603079483e+01 -13 -1 0
1318 444 1 -1.0484000000000000e+00 2.3253473908651628e+01 1.7655885142448657e+01 3.2324368272727000e+01 -2 -4 0
1826 444 2 5.2420000000000000e-01 2.4463794756498118e+01 1.9254349441020988e+01 3.1622026753638430e+01 -13 -1 0
97 444 1 -1.0484000000000000e+00 2.8180924025497980e+01 1.9749372330248885e+01 2.8158400217941534e+01 -6 -6 0
99 444 2 5.2420000000000000e-01 2.8095556366096499e+01 1.9124007473403726e+01 2.8878028630776008e+01 -6 -6 0
903 444 2 5.2420000000000000e-01 2.4039442152490931e+01 1.8387655275564928e+01 3.4498633613885531e+01 8 1 0
1320 444 2 5.2420000000000000e-01 2.2468842830753864e+01 1.8195551178443392e+01 3.2227681449638666e+01 -2 -4 0
245 444 2 5.2420000000000000e-01 2.8173313635229032e+01 1.9825587445378602e+01 3.3551403882841313e+01 -2 -2 0
870 444 2 5.2420000000000000e-01 2.6621019833019318e+01 1.8685998823061777e+01 3.0639564523101136e+01 -7 3 0
868 444 1 -1.0484000000000000e+00 2.7401390840647533e+01 1.8221125499749085e+01 3.0337660109331932e+01 -7 3 0
901 444 1 -1.0484000000000000e+00 2.4004503269073048e+01 1.9274838374733999e+01 3.4856289156967726e+01 8 1 0
1974 444 2 5.2420000000000000e-01 2.4172071467634584e+01 1.7784898058014679e+01 2.8029245214045872e+01 -2 3 0
1827 444 2 5.2420000000000000e-01 2.5953759949538895e+01 1.9369133805438551e+01 3.1864358274645703e+01 -13 -1 0
869 444 2 5.2420000000000000e-01 2.8018731479499564e+01 1.8290350155423951e+01 3.1065898185106931e+01 -7 3 0
244 444 1 -1.0484000000000000e+00 2.7858819754326831e+01 2.0334163357423648e+01 3.2803957415839328e+01 -2 -2 0
246 444 2 5.2420000000000000e-01 2.8622520967015831e+01 2.0833808111009553e+01 3.2515257129486116e+01 -2 -2 0
1973 444 2 5.2420000000000000e-01 2.3412778378384878e+01 1.7147137785217225e+01 2.6885291041925345e+01 -2 3 0
1125 444 2 5.2420000000000000e-01 2.6192542215404945e+01 1.7122294601881332e+01 2.9302450234778121e+01 0 1 0
909 444 2 5.2420000000000000e-01 2.7302476204610798e+01 1.8245242107815130e+01 3.7809232473707723e+01 0 -7 0
907 444 1 -1.0484000000000000e+00 2.7049912800539708e+01 1.7545598843557997e+01 3.8411680659697687e+01 0 -7 0
1342 444 1 -1.0484000000000000e+00 2.6054578799328990e+01 2.0828051769256433e+01 3.6026375000432317e+01 -7 5 0
773 444 2 5.2420000000000000e-01 2.3447207628185993e+01 1.8393179182956473e+01 3.7182622800290851e+01 -1 -4 0
1804 444 1 -1.0484000000000000e+00 2.8097837717373373e+01 1.9019696912637077e+01 3.5824206308763607e+01 2 -4 0
1805 444 2 5.2420000000000000e-01 2.8940141239916578e+01 1.9452052380419129e+01 3.5683399328977195e+01 2 -4 0
1806 444 2 5.2420000000000000e-01 2.7509117442639045e+01 1.9723819730636251e+01 3.6095965574412638e+01 2 -4 0
908 444 2 5.2420000000000000e-01 2.7603906550842211e+01 1.7679472500745458e+01 3.9180706477726893e+01 0 -7 0
1344 444 2 5.2420000000000000e-01 2.5364182983040077e+01 2.0253554827535147e+01 3.5695406926895707e+01 -7 5 0
772 444 1 -1.0484000000000000e+00 2.3148717929060840e+01 1.7491649953896506e+01 3.7302544037262876e+01 -1 -4 0
2104 444 1 -1.0484000000000000e+00 2.4557392385138026e+01 2.4480717261196595e+01 8.4104058981424501e+00 -4 2 0
2105 444 2 5.2420000000000000e-01 2.5309818638100271e+01 2.5066574619532620e+01 8.4932273448249234e+00 -4 2 0
1175 444 2 5.2420000000000000e-01 2.9464460049680145e+01 2.2043678251461547e+01 8.6810006657999121e+00 7 -1 0
717 444 2 5.2420000000000000e-01 2.2875265048351974e+01 2.4596546573741769e+01 8.6373605518911027e+00 -4 0 0
2106 444 2 5.2420000000000000e-01 2.4781085771509137e+01 2.3724606978218500e+01 8.9530766909875297e+00 -4 2 0
1909 444 1 -1.0484000000000000e+00 2.4856955472732178e+01 2.2254515206528776e+01 1.0075171232717041e+01 2 2 0
159 444 2 5.2420000000000000e-01 2.9148450430164385e+01 2.5168102886323631e+01 1.6434576156770508e+01 3 -1 0
157 444 1 -1.0484000000000000e+00 2.9463330624978973e+01 2.5003951928897756e+01 1.5545679638894237e+01 3 -1 0
1910 444 2 5.2420000000000000e-01 2.5471961556219682e+01 2.2374183793862535e+01 1.0798828106218462e+01 2 2 0
1945 444 1 -1.0484000000000000e+00 2.6564130712987904e+01 2.5614976178933595e+01 1.1102892441107173e+01 -1 -4 0
2930 444 2 5.2420000000000000e-01 2.7596194429019636e+01 2.2625104610513375e+01 1.2290510297373915e+01 5 5 0
2180 444 2 5.2420000000000000e-01 2.3192518415157917e+01 2.3533384645623880e+01 1.4868108573390989e+01 -8 -1 0
2671 444 1 -1.0484000000000000e+00 2.9249548485465546e+01 2.1808002947985198e+01 1.1939272200148684e+01 -4 3 0
2575 444 1 -1.0484000000000000e+00 2.2531398943441037e+01 2.3595655708186168e+01 1.1152856755908843e+01 -1 3 0
2577 444 2 5.2420000000000000e-01 2.3275454113103528e+01 2.3041622787694106e+01 1.0916930283249318e+01 -1 3 0
780 444 2 5.2420000000000000e-01 2.7481098747069129e+01 2.2789572069074598e+01 1.4173999503236388e+01 7 1 0
1911 444 2 5.2420000000000000e-01 2.5166391709113906e+01 2.1468660894957367e+01 9.6247109680108984e+00 2 2 0
2931 444 2 5.2420000000000000e-01 2.7081043675870870e+01 2.4014513748832272e+01 1.1980576640282942e+01 5 5 0
4 444 1 -1.0484000000000000e+00 2.5136551119116241e+01 2.3627816282459104e+01 1.5926323520888795e+01 -4 4 0
6 444 2 5.2420000000000000e-01 2.5121059711394171e+01 2.3801052153242434e+01 1.6867589933192914e+01 -4 4 0
778 444 1 -1.0484000000000000e+00 2.8089629849370173e+01 2.2689144472567595e+01 1.4906008048426974e+01 7 1 0
5 444 2 5.2420000000000000e-01 2.5218651679604076e+01 2.4492680871534908e+01 1.5524450005593289e+01 -4 4 0
2673 444 2 5.2420000000000000e-01 2.8966365917839799e+01 2.1646308779595319e+01 1.1039330645552042e+01 -4 3 0
779 444 2 5.2420000000000000e-01 2.7879468513528376e+01 2.1832137114529001e+01 1.5276957202988100e+01 7 1 0
2432 444 2 5.2420000000000000e-01 2.4692222956729442e+01 2.1802887057307949e+01 1.5605454505413146e+01 -1 -4 0
2929 444 1 -1.0484000000000000e+00 2.6811050021114006e+01 2.3170217229395767e+01 1.2341823642583858e+01 5 5 0
158 444 2 5.2420000000000000e-01 2.8954007730779118e+01 2.4250997061930402e+01 1.5245877626545964e+01 3 -1 0
2179 444 1 -1.0484000000000000e+00 2.2285856417460590e+01 2.3619500691364870e+01 1.4573523461695865e+01 -8 -1 0
227 444 2 5.2420000000000000e-01 2.3528991560452436e+01 2.5074758045212040e+01 1.1688715442445657e+01 -1 -5 0
1071 444 2 5.2420000000000000e-01 2.9531857601899485e+01 2.5609687935170783e+01 9.5720199990190249e+00 -9 3 0
1628 444 2 5.2420000000000000e-01 2.2224219546378677e+01 2.5296446029850109e+01 1.4287416125400329e+01 -4 -4 0
289 444 1 -1.0484000000000000e+00 2.2910098198314177e+01 2.1464503544777049e+01 1.8580985401146819e+01 5 0 0
833 444 2 5.2420000000000000e-01 2.7931682757535238e+01 2.5580777735299762e+01 2.1060740379878872e+01 0 -2 0
2589 444 2 5.2420000000000000e-01 2.6494275590800967e+01 2.1687604395575068e+01 2.4880463932360318e+01 -5 3 0
635 444 2 5.2420000000000000e-01 2.3692113210518649e+01 2.4874902059234881e+01 2.0971502223125647e+01 -8 -3 0
636 444 2 5.2420000000000000e-01 2.3782284090659740e+01 2.4572606528570699e+01 1.9490832235298065e+01 -8 -3 0
139 444 1 -1.0484000000000000e+00 2.3501115443127219e+01 2.2637650547065270e+01 2.2546845525833387e+01 -1 0 0
2753 444 2 5.2420000000000000e-01 2.5404328234543947e+01 2.3015356761803680e+01 2.6417646152703739e+01 4 -5 0
397 444 1 -1.0484000000000000e+00 2.6607458058427294e+01 2.2674912470683186e+01 2.0443635119224112e+01 4 -6 0
398 444 2 5.2420000000000000e-01 2.6283279650504255e+01 2.2078729184676916e+01 2.1118696203473384e+01 4 -6 0
2752 444 1 -1.0484000000000000e+00 2.5359112689037371e+01 2.2065689003112972e+01 2.6306649717443694e+01 4 -5 0
660 444 2 5.2420000000000000e-01 2.5461724503848789e+01 2.3188134598859822e+01 1.9248741795734617e+01 -3 -5 0
658 444 1 -1.0484000000000000e+00 2.4782890710013849e+01 2.3470652545757702e+01 1.8635879077117639e+01 -3 -5 0
659 444 2 5.2420000000000000e-01 2.4114384412069693e+01 2.2787453682254370e+01 1.8686580766929762e+01 -3 -5 0
140 444 2 5.2420000000000000e-01 2.3936974595895173e+01 2.3488460693077819e+01 2.2595642075198946e+01 -1 0 0
399 444 2 5.2420000000000000e-01 2.7326066977059728e+01 2.2198586004801260e+01 2.0027767066773119e+01 4 -6 0
834 444 2 5.2420000000000000e-01 2.7167744690710141e+01 2.4522690613144455e+01 2.0293442617286495e+01 0 -2 0
137 444 2 5.2420000000000000e-01 2.9423283847991449e+01 2.5165885544814063e+01 2.6592904530765939e+01 10 1 0
141 444 2 5.2420000000000000e-01 2.2939718410712793e+01 2.2610812695511552e+01 2.3321665176558135e+01 -1 0 0
2882 444 2 5.2420000000000000e-01 2.5986427502545929e+01 2.4985303396537795e+01 2.2821109996047653e+01 7 -10 0
2881 444 1 -1.0484000000000000e+00 2.5131054930504231e+01 2.5224762854115369e+01 2.2464417163104162e+01 7 -10 0
568 444 1 -1.0484000000000000e+00 2.7785820560515599e+01 2.5171571640142634e+01 2.2908346446461810e+01 -1 1 0
1769 444 2 5.2420000000000000e-01 2.9391630793013917e+01 2.2508050880846515e+01 2.1967241822089623e+01 7 -2 0
570 444 2 5.2420000000000000e-01 2.8410365776525815e+01 2.4446730591799042e+01 2.2880398834591329e+01 -1 1 0
634 444 1 -1.0484000000000000e+00 2.3251721345861274e+01 2.5038053637008744e+01 2.0137434655722451e+01 -8 -3 0
832 444 1 -1.0484000000000000e+00 2.7755454238702821e+01 2.5268594814323901e+01 2.0173205924507084e+01 0 -2 0
164 444 2 5.2420000000000000e-01 2.6127137271877416e+01 2.5215536676937752e+01 2.6596567793360705e+01 6 -1 0
1343 444 2 5.2420000000000000e-01 2.6200687446529088e+01 2.1458588348983437e+01 3.5321174005669832e+01 -7 5 0
1944 444 2 5.2420000000000000e-01 2.8713171366272707e+01 2.1479042044194863e+01 2.8675332016963289e+01 3 6 0
2263 444 1 -1.0484000000000000e+00 2.6419204034964288e+01 2.4702681500983264e+01 3.2617328290890228e+01 -3 -3 0
1326 444 2 5.2420000000000000e-01 2.3654812694583040e+01 2.1994917901623623e+01 2.9600447539186341e+01 0 2 0
1943 444 2 5.2420000000000000e-01 2.8706906331637043e+01 2.2655301917779770e+01 2.9628363444194090e+01 3 6 0
1995 444 2 5.2420000000000000e-01 2.6395877286516022e+01 2.1404651535149295e+01 3.3024390374707338e+01 -1 -4 0
584 444 2 5.2420000000000000e-01 2.8688327477689462e+01 2.4667905070799229e+01 3.2170493363177528e+01 9 -8 0
583 444 1 -1.0484000000000000e+00 2.9602202548662586e+01 2.4476995186416872e+01 3.1959264165567387e+01 9 -8 0
2754 444 2 5.2420000000000000e-01 2.5044901318500994e+01 2.1740168062869209e+01 2.7150177915774506e+01 4 -5 0
2265 444 2 5.2420000000000000e-01 2.5674908078669588e+01 2.5285479697970409e+01 3.2466988541551032e+01 -3 -3 0
2264 444 2 5.2420000000000000e-01 2.6024862203608620e+01 2.3878604344910670e+01 3.2903026728410502e+01 -3 -3 0
1547 444 2 5.2420000000000000e-01 2.6876329522253641e+01 2.3741129514834654e+01 3.0938760765366201e+01 1 -4 0
2324 444 2 5.2420000000000000e-01 2.7630559850717422e+01 2.5202953751379457e+01 2.9479167800732796e+01 -1 6 0
1942 444 1 -1.0484000000000000e+00 2.9205341616259350e+01 2.2265766048166626e+01 2.8909993038534360e+01 3 6 0
163 444 1 -1.0484000000000000e+00 2.5283288337769058e+01 2.4804411715802090e+01 2.6783990867360163e+01 6 -1 0
1546 444 1 -1.0484000000000000e+00 2.7009449145984252e+01 2.3422748785936921e+01 3.0045931131235825e+01 1 -4 0
165 444 2 5.2420000000000000e-01 2.5067735835693298e+01 2.5092463344283239e+01 2.7671006375268703e+01 6 -1 0
1994 444 2 5.2420000000000000e-01 2.4937991687417323e+01 2.1384619985725045e+01 3.3431900220476244e+01 -1 -4 0
1548 444 2 5.2420000000000000e-01 2.6134499011843474e+01 2.3176153545390466e+01 2.9746122962803284e+01 1 -4 0
1993 444 1 -1.0484000000000000e+00 2.5700836676518215e+01 2.1960216529260116e+01 3.3377235089507799e+01 -1 -4 0
1325 444 2 5.2420000000000000e-01 2.5034463845317717e+01 2.1466310951988749e+01 2.9930649359042182e+01 0 2 0
1324 444 1 -1.0484000000000000e+00 2.4585555637256743e+01 2.2167763450978409e+01 2.9458761326152221e+01 0 2 0
2328 444 2 5.2420000000000000e-01 2.6710211400733808e+01 2.7264760772397068e+01 8.7161587723516014e+00 6 3 0
1069 444 1 -1.0484000000000000e+00 2.9415961461335709e+01 2.5793155078181027e+01 8.6397426869412612e+00 -9 3 0
2327 444 2 5.2420000000000000e-01 2.7599336840275992e+01 2.6060919460348668e+01 8.4878616725743470e+00 6 3 0
2326 444 1 -1.0484000000000000e+00 2.6681458787863395e+01 2.6318760085017903e+01 8.5730178500807579e+00 6 3 0
340 444 1 -1.0484000000000000e+00 2.6822281027655258e+01 2.9071093983965817e+01 9.5038141450097893e+00 -1 -3 0
2530 444 1 -1.0484000000000000e+00 2.4192880387548282e+01 2.8770056913120797e+01 1.0610624873532952e+01 1 0 0
1290 444 2 5.2420000000000000e-01 2.3004499272898776e+01 2.8590474479930005e+01 1.6485386510107695e+01 0 -6 0
1288 444 1 -1.0484000000000000e+00 2.3870463330030013e+01 2.8423965555580423e+01 1.6113078778710250e+01 0 -6 0
2353 444 1 -1.0484000000000000e+00 2.5236252388393122e+01 2.9215136884065668e+01 1.3937607710727864e+01 -1 3 0
342 444 2 5.2420000000000000e-01 2.7132218036402854e+01 2.9609199474170268e+01 1.0232246982879170e+01 -1 -3 0
1289 444 2 5.2420000000000000e-01 2.3863139656962623e+01 2.7491743127947188e+01 1.5895961836611528e+01 0 -6 0
2355 444 2 5.2420000000000000e-01 2.4856739778936756e+01 2.8669352081268428e+01 1.4626317841444893e+01 -1 3 0
2354 444 2 5.2420000000000000e-01 2.6172962518558748e+01 2.9232319573115859e+01 1.4133852533712268e+01 -1 3 0
2531 444 2 5.2420000000000000e-01 2.5073439181649633e+01 2.9136617117505640e+01 1.0691135494972070e+01 1 0 0
2532 444 2 5.2420000000000000e-01 2.4280918971850383e+01 2.7865742926461689e+01 1.0911785213949628e+01 1 0 0
2799 444 2 5.2420000000000000e-01 2.4702238765848460e+01 2.5706894628474323e+01 1.3684204610732925e+01 5 -7 0
2039 444 2 5.2420000000000000e-01 2.8528218236523717e+01 2.6123523355264044e+01 1.4315257211319933e+01 11 -1 0
2038 444 1 -1.0484000000000000e+00 2.7967939363362508e+01 2.6635496671266218e+01 1.3731987425982540e+01 11 -1 0
222 444 2 5.2420000000000000e-01 2.8096132305807540e+01 2.9020082062380474e+01 1.4944163306236486e+01 -2 4 0
226 444 1 -1.0484000000000000e+00 2.3982709928825027e+01 2.5894342843642558e+01 1.1885318481452723e+01 -1 -5 0
228 444 2 5.2420000000000000e-01 2.4840638949707955e+01 2.5798899277530349e+01 1.1471699638595382e+01 -1 -5 0
1629 444 2 5.2420000000000000e-01 2.2781150618128834e+01 2.6381385930929206e+01 1.3390405169781088e+01 -4 -4 0
2798 444 2 5.2420000000000000e-01 2.6122446162481200e+01 2.6194943097550109e+01 1.3875816642977210e+01 5 -7 0
1881 444 2 5.2420000000000000e-01 2.9396702623675971e+01 2.6476249439564853e+01 1.2198570347904937e+01 -7 5 0
2709 444 2 5.2420000000000000e-01 2.6844710753487277e+01 2.9535898552920262e+01 1.7383844677809332e+01 10 4 0
971 444 2 5.2420000000000000e-01 2.9308456131301099e+01 2.7693907655195975e+01 1.6922523424605462e+01 8 -3 0
970 444 1 -1.0484000000000000e+00 2.8937756321492927e+01 2.8479617614659798e+01 1.6520685257672753e+01 8 -3 0
2797 444 1 -1.0484000000000000e+00 2.5386560083460836e+01 2.5803547917915935e+01 1.4346469507318915e+01 5 -7 0
2040 444 2 5.2420000000000000e-01 2.8363129511966491e+01 2.7507270277113392e+01 1.3723745315654686e+01 11 -1 0
220 444 1 -1.0484000000000000e+00 2.7878748982825940e+01 2.9669741727537534e+01 1.4275643345293691e+01 -2 4 0
341 444 2 5.2420000000000000e-01 2.6248887354596103e+01 2.9651731996377546e+01 9.0035018338370776e+00 -1 -3 0
2991 444 2 5.2420000000000000e-01 2.2262516208050673e+01 2.9055157285858495e+01 1.0693199550499228e+01 -6 -3 0
1947 444 2 5.2420000000000000e-01 2.7288532178902880e+01 2.5799960904770717e+01 1.1700600882187290e+01 -1 -4 0
1946 444 2 5.2420000000000000e-01 2.6860585661016682e+01 2.5948471372343406e+01 1.0256058241637161e+01 -1 -4 0
2768 444 2 5.2420000000000000e-01 2.8646123308374946e+01 2.8100397425954174e+01 2.4738063956478545e+01 -2 -1 0
2883 444 2 5.2420000000000000e-01 2.4827213218836732e+01 2.5936966225619013e+01 2.3027160226177411e+01 7 -10 0
356 444 2 5.2420000000000000e-01 2.8998426647876840e+01 2.5733436027715189e+01 1.8726962301716522e+01 -1 -8 0
136 444 1 -1.0484000000000000e+00 2.8678501440148029e+01 2.5754481191487272e+01 2.6470076264127552e+01 10 1 0
2919 444 2 5.2420000000000000e-01 2.2341382572703026e+01 2.7417399963176184e+01 2.2313928847332900e+01 -5 6 0
138 444 2 5.2420000000000000e-01 2.8932735530532472e+01 2.6313185800726259e+01 2.5735605692301750e+01 10 1 0
2156 444 2 5.2420000000000000e-01 2.2873512128513607e+01 2.6494845240454257e+01 2.6154476866516887e+01 1 3 0
405 444 2 5.2420000000000000e-01 2.7157673188313090e+01 2.9552911548638754e+01 2.1619413162756587e+01 -1 -2 0
403 444 1 -1.0484000000000000e+00 2.7641367760601195e+01 2.8729461722987576e+01 2.1554590827313774e+01 -1 -2 0
525 444 2 5.2420000000000000e-01 2.3520774176644974e+01 2.6789073269894740e+01 2.0247059617965064e+01 4 3 0
514 444 1 -1.0484000000000000e+00 2.8311058876603919e+01 2.8692957553808402e+01 2.6560775060549936e+01 -6 -7 0
1350 444 2 5.2420000000000000e-01 2.3923863028920106e+01 2.7240579861378851e+01 2.4217169415364552e+01 -8 0 0
1349 444 2 5.2420000000000000e-01 2.4511917058349006e+01 2.8464008121819337e+01 2.3546862776609370e+01 -8 0 0
1348 444 1 -1.0484000000000000e+00 2.4211651320354370e+01 2.7573103412906704e+01 2.3366970665981793e+01 -8 0 0
2488 444 1 -1.0484000000000000e+00 2.2226124721459133e+01 2.9173323690533969e+01 1.8575193521914574e+01 4 0 0
404 444 2 5.2420000000000000e-01 2.7230041867227026e+01 2.8266328437627511e+01 2.0824829869871188e+01 -1 -2 0
523 444 1 -1.0484000000000000e+00 2.3900402254380403e+01 2.7643201602090926e+01 2.0040706208374264e+01 4 3 0
758 444 2 5.2420000000000000e-01 2.5543454872556136e+01 2.7582245574570276e+01 1.9340341329941186e+01 5 0 0
757 444 1 -1.0484000000000000e+00 2.6495905306609437e+01 2.7657559178231146e+01 1.9398641658873757e+01 5 0 0
759 444 2 5.2420000000000000e-01 2.6811956877743508e+01 2.6755929065135884e+01 1.9340272955924895e+01 5 0 0
524 444 2 5.2420000000000000e-01 2.4429099596529358e+01 2.7862517545545270e+01 2.0807916826847045e+01 4 3 0
2769 444 2 5.2420000000000000e-01 2.8807624128821207e+01 2.7790278490009069e+01 2.3265094255258173e+01 -2 -1 0
2490 444 2 5.2420000000000000e-01 2.2733857962636424e+01 2.8596206877201809e+01 1.9145610101090185e+01 4 0 0
2155 444 1 -1.0484000000000000e+00 2.3717267762004266e+01 2.6734609830188933e+01 2.5771303863201993e+01 1 3 0
2767 444 1 -1.0484000000000000e+00 2.8822895265246686e+01 2.7381988153546999e+01 2.4130714648457182e+01 -2 -1 0
569 444 2 5.2420000000000000e-01 2.8207139516321053e+01 2.5830221692413211e+01 2.3460527211921004e+01 -1 1 0
2157 444 2 5.2420000000000000e-01 2.4335461420596857e+01 2.6102031001054218e+01 2.6137244815966564e+01 1 3 0
2982 444 2 5.2420000000000000e-01 2.9323965185327708e+01 2.8665169786765620e+01 2.0816307242495345e+01 4 3 0
515 444 2 5.2420000000000000e-01 2.7434433956549814e+01 2.8380754942117637e+01 2.6785032031279840e+01 -6 -7 0
913 444 1 -1.0484000000000000e+00 2.4498077584875304e+01 2.9142421713405565e+01 3.2718233802771401e+01 0 10 0
574 444 1 -1.0484000000000000e+00 2.5460326866008280e+01 2.8356812548996810e+01 2.7532639433273804e+01 -3 -3 0
692 444 2 5.2420000000000000e-01 2.8468154807676733e+01 2.8339162727005476e+01 3.3783697951186227e+01 -1 2 0
1618 444 1 -1.0484000000000000e+00 2.5063070485050964e+01 2.6181193504289269e+01 2.9227084840802569e+01 -8 -4 0
576 444 2 5.2420000000000000e-01 2.5122658810087934e+01 2.7885566072037602e+01 2.6770970545924119e+01 -3 -3 0
516 444 2 5.2420000000000000e-01 2.8379688957423198e+01 2.9545186361821987e+01 2.6991157763212804e+01 -6 -7 0
575 444 2 5.2420000000000000e-01 2.5314874364577594e+01 2.7760863144485025e+01 2.8267432545695950e+01 -3 -3 0
2323 444 1 -1.0484000000000000e+00 2.7742071177365375e+01 2.6057151569661158e+01 2.9061861919746796e+01 -1 6 0
643 444 1 -1.0484000000000000e+00 2.7308566277091849e+01 2.9541820694098806e+01 3.3875749971749414e+01 2 1 0
2107 444 1 -1.0484000000000000e+00 2.4671707142730199e+01 2.6499709803769747e+01 3.1897512129579265e+01 2 1 0
2325 444 2 5.2420000000000000e-01 2.8216650018695930e+01 2.5868603139480470e+01 2.8252258502170825e+01 -1 6 0
386 444 2 5.2420000000000000e-01 2.2984430684102641e+01 2.9717902359311896e+01 3.0175261291072349e+01 -1 -2 0
1619 444 2 5.2420000000000000e-01 2.4945374447902260e+01 2.6302114927347187e+01 3.0169293821768331e+01 -8 -4 0
2109 444 2 5.2420000000000000e-01 2.3775944575605035e+01 2.6283067255863660e+01 3.2156176652671370e+01 2 1 0
915 444 2 5.2420000000000000e-01 2.3581080206968167e+01 2.9266922915043491e+01 3.2962872775656983e+01 0 10 0
1620 444 2 5.2420000000000000e-01 2.6008605525985640e+01 2.6084424734237707e+01 2.9113809898717768e+01 -8 -4 0
2108 444 2 5.2420000000000000e-01 2.4841104197334012e+01 2.7348269047665202e+01 3.2306760050779161e+01 2 1 0
693 444 2 5.2420000000000000e-01 2.9056037453787329e+01 2.7722398548161202e+01 3.2532342087336801e+01 -1 2 0
2549 444 2 5.2420000000000000e-01 2.8579713687424032e+01 2.7410750667841576e+01 3.0214379803198053e+01 -3 1 0
644 444 2 5.2420000000000000e-01 2.6388133547591778e+01 2.9294050152709357e+01 3.3963189254253415e+01 2 1 0
2548 444 1 -1.0484000000000000e+00 2.8941659961304076e+01 2.8206796423757584e+01 3.0603660649992555e+01 -3 1 0
691 444 1 -1.0484000000000000e+00 2.9196788719095654e+01 2.7800077461041994e+01 3.3475945423482756e+01 -1 2 0
914 444 2 5.2420000000000000e-01 2.4677214223621604e+01 2.9844901282361754e+01 3.2093201622650525e+01 0 10 0
645 444 2 5.2420000000000000e-01 2.7384268199920751e+01 2.9871755476830806e+01 3.2980403216621234e+01 2 1 0
1634 444 2 5.2420000000000000e-01 2.3334448938623709e+01 3.2725347385600465e+01 8.6067902013541957e+00 7 4 0
1855 444 1 -1.0484000000000000e+00 2.5892225785608083e+01 3.1463985987755436e+01 8.4266447055007117e+00 1 -2 0
328 444 1 -1.0484000000000000e+00 2.7866680385519945e+01 3.3341969335604411e+01 8.5462300148505914e+00 -5 1 0
329 444 2 5.2420000000000000e-01 2.8490986328765572e+01 3.4057364654491515e+01 8.6674081208858897e+00 -5 1 0
330 444 2 5.2420000000000000e-01 2.8369239572786892e+01 3.2549975048672330e+01 8.7370497295013134e+00 -5 1 0
1857 444 2 5.2420000000000000e-01 2.6518764032747214e+01 3.2183946595177140e+01 8.3535753631548459e+00 1 -2 0
1633 444 1 -1.0484000000000000e+00 2.2769626890075756e+01 3.3389264867659534e+01 9.0022927560702826e+00 7 4 0
221 444 2 5.2420000000000000e-01 2.7690664017508556e+01 3.0468123403431434e+01 1.4769042384737986e+01 -2 4 0
1116 444 2 5.2420000000000000e-01 2.7813635028230465e+01 3.0257498213298366e+01 1.2367694787275386e+01 -4 -2 0
1693 444 1 -1.0484000000000000e+00 2.7633184288518269e+01 3.2205325549729828e+01 1.5867112111632663e+01 8 0 0
1694 444 2 5.2420000000000000e-01 2.7076729439741030e+01 3.2958698325657842e+01 1.6064648975740916e+01 8 0 0
2426 444 2 5.2420000000000000e-01 2.2918021289632332e+01 3.2836390785604777e+01 1.1898631090840071e+01 4 -1 0
2287 444 1 -1.0484000000000000e+00 2.2977597829854911e+01 3.2689348614441528e+01 1.5340870625105106e+01 -5 -2 0
264 444 2 5.2420000000000000e-01 2.4851119562842246e+01 3.3453855515783658e+01 1.5516193764291227e+01 -3 9 0
646 444 1 -1.0484000000000000e+00 2.4940809186957768e+01 3.1646378545164762e+01 1.1111584423085040e+01 3 0 0
2364 444 2 5.2420000000000000e-01 2.4039735696642531e+01 3.1464703231003739e+01 1.7081573593097389e+01 -6 -7 0
2288 444 2 5.2420000000000000e-01 2.2904783508689082e+01 3.2171090612349431e+01 1.4539410006586406e+01 -5 -2 0
648 444 2 5.2420000000000000e-01 2.5795060539861989e+01 3.1285246005821985e+01 1.1348375310262337e+01 3 0 0
262 444 1 -1.0484000000000000e+00 2.5561046055523740e+01 3.4095211439628002e+01 1.5486209385976345e+01 -3 9 0
2427 444 2 5.2420000000000000e-01 2.3562769184032526e+01 3.4055982280491989e+01 1.2522163940815270e+01 4 -1 0
2164 444 1 -1.0484000000000000e+00 2.8763492264738513e+01 3.2929096778858195e+01 1.1444015480566483e+01 -1 0 0
2425 444 1 -1.0484000000000000e+00 2.2759169058980227e+01 3.3759721099859576e+01 1.2094741654808049e+01 4 -1 0
2165 444 2 5.2420000000000000e-01 2.8302167438256618e+01 3.3663151421386942e+01 1.1038336691179905e+01 -1 0 0
1635 444 2 5.2420000000000000e-01 2.2969271137172306e+01 3.3347980237291061e+01 9.9375306788750581e+00 7 4 0
1787 444 2 5.2420000000000000e-01 2.2492520453780543e+01 3.0639861137710291e+01 1.2991135592214933e+01 -2 -2 0
1976 444 2 5.2420000000000000e-01 2.8791219250081429e+01 3.3274450161983445e+01 1.3215685580146847e+01 5 -2 0
1856 444 2 5.2420000000000000e-01 2.5499970988077820e+01 3.1574181784183146e+01 9.2928007198965847e+00 1 -2 0
1975 444 1 -1.0484000000000000e+00 2.9144179035259814e+01 3.3485127109411593e+01 1.4080131858068992e+01 5 -2 0
647 444 2 5.2420000000000000e-01 2.4336208759923714e+01 3.1272688748838316e+01 1.1752713327751044e+01 3 0 0
1695 444 2 5.2420000000000000e-01 2.7489442113351387e+01 3.1602879833624961e+01 1.6596927631590891e+01 8 0 0
1114 444 1 -1.0484000000000000e+00 2.7312540285620692e+01 3.0736497042775166e+01 1.1707621780651449e+01 -4 -2 0
2166 444 2 5.2420000000000000e-01 2.9224143853054446e+01 3.2505404975003707e+01 1.0719778498017879e+01 -1 0 0
1788 444 2 5.2420000000000000e-01 2.3835357229698015e+01 3.0119419778026838e+01 1.3457853403089834e+01 -2 -2 0
1115 444 2 5.2420000000000000e-01 2.7711801883086231e+01 3.1606223100909304e+01 1.1687644947923426e+01 -4 -2 0
1786 444 1 -1.0484000000000000e+00 2.3414089942913190e+01 3.0886345902008362e+01 1.3069793285640305e+01 -2 -2 0
1977 444 2 5.2420000000000000e-01 2.8677373019019214e+01 3.2901902827343463e+01 1.4678609109530587e+01 5 -2 0
1448 444 2 5.2420000000000000e-01 2.9214447711595522e+01 3.2975522713854872e+01 2.1376025059481492e+01 -11 0 0
2825 444 2 5.2420000000000000e-01 2.8291566295460541e+01 3.0764047290182020e+01 1.8839274688253781e+01 -3 -8 0
2707 444 1 -1.0484000000000000e+00 2.6853239562299944e+01 3.0339717189878932e+01 1.7903493396135524e+01 10 4 0
2960 444 2 5.2420000000000000e-01 2.5148082810153760e+01 3.0645723962924645e+01 2.4370279869403845e+01 1 1 0
2494 444 1 -1.0484000000000000e+00 2.2328784535440530e+01 3.0888249327279386e+01 2.5819030002882094e+01 2 -3 0
2362 444 1 -1.0484000000000000e+00 2.4221665803882516e+01 3.0972479539410241e+01 1.7882104465285892e+01 -6 -7 0
1206 444 2 5.2420000000000000e-01 2.4115056371380149e+01 3.2519039208001864e+01 2.1495134549390087e+01 11 -1 0
1204 444 1 -1.0484000000000000e+00 2.3562086759218278e+01 3.2163313694578129e+01 2.2190775258298302e+01 11 -1 0
1254 444 2 5.2420000000000000e-01 2.3888910702961933e+01 3.2457438716273217e+01 1.8921902253469678e+01 -9 -7 0
1252 444 1 -1.0484000000000000e+00 2.4159266167230626e+01 3.3050225977018094e+01 1.9623147016300798e+01 -9 -7 0
1205 444 2 5.2420000000000000e-01 2.2957452005647042e+01 3.1574444564409124e+01 2.1739242396064245e+01 11 -1 0
950 444 2 5.2420000000000000e-01 2.5803728040256068e+01 3.1767226946660699e+01 2.0036757034693181e+01 -3 2 0
949 444 1 -1.0484000000000000e+00 2.6240749443741091e+01 3.1116323152408537e+01 2.0585909850417547e+01 -3 2 0
1848 444 2 5.2420000000000000e-01 2.7318406791568961e+01 3.2283410144945613e+01 2.3294699640587268e+01 2 8 0
1959 444 2 5.2420000000000000e-01 2.7189779090894557e+01 3.2326949827668450e+01 2.5760799312714738e+01 -5 -2 0
1958 444 2 5.2420000000000000e-01 2.5744005583301401e+01 3.2469087311099209e+01 2.5334851379340211e+01 -5 -2 0
1957 444 1 -1.0484000000000000e+00 2.6489015954500857e+01 3.1869331725002787e+01 2.5296311424324177e+01 -5 -2 0
2363 444 2 5.2420000000000000e-01 2.3550478661257742e+01 3.0290321395749427e+01 1.7902153895657051e+01 -6 -7 0
2496 444 2 5.2420000000000000e-01 2.2936647685710646e+01 3.1516314609027557e+01 2.6209246106757078e+01 2 -3 0
2961 444 2 5.2420000000000000e-01 2.4051719988589131e+01 3.0854386730118698e+01 2.3347370428667212e+01 1 1 0
1846 444 1 -1.0484000000000000e+00 2.7613820372342342e+01 3.2847145441019222e+01 2.2579741091740033e+01 2 8 0
951 444 2 5.2420000000000000e-01 2.6632781062246504e+01 3.0502560292085910e+01 1.9964750786973124e+01 -3 2 0
1847 444 2 5.2420000000000000e-01 2.7175122062787050e+01 3.2499661685611898e+01 2.1803190094362204e+01 2 8 0
2824 444 1 -1.0484000000000000e+00 2.9189131305365109e+01 3.0969742044560650e+01 1.9100615389339964e+01 -3 -8 0
2959 444 1 -1.0484000000000000e+00 2.4385852647460727e+01 3.0218251332274168e+01 2.3979762025067480e+01 1 1 0
2495 444 2 5.2420000000000000e-01 2.2843580475268467e+01 3.0442005943646496e+01 2.5146657350972248e+01 2 -3 0
2708 444 2 5.2420000000000000e-01 2.5929204132440432e+01 3.0563265772758626e+01 1.8014922830413052e+01 10 4 0
1253 444 2 5.2420000000000000e-01 2.4602999716392127e+01 3.3768640004757835e+01 1.9172352794843999e+01 -9 -7 0
2473 444 1 -1.0484000000000000e+00 2.8420812382193834e+01 3.3867987093591573e+01 2.6460136046568628e+01 -9 -5 0
2866 444 1 -1.0484000000000000e+00 2.4112911355978930e+01 3.3700250452505514e+01 2.5764961931472538e+01 2 0 0
1464 444 2 5.2420000000000000e-01 2.3034601440079253e+01 3.3778259786554017e+01 2.2482570275946124e+01 1 2 0
2072 444 2 5.2420000000000000e-01 2.2471734879376420e+01 3.3986513167442993e+01 2.6589028879817292e+01 -8 -2 0
1074 444 2 5.2420000000000000e-01 2.9236800136045467e+01 3.1374930988862751e+01 2.8405619690506459e+01 2 -6 0
2498 444 2 5.2420000000000000e-01 2.6575157597546436e+01 3.3960359290961556e+01 3.2977660375290078e+01 -1 9 0
544 444 1 -1.0484000000000000e+00 2.7689186522359190e+01 3.0717307415290453e+01 3.1423833607420420e+01 -6 2 0
1073 444 2 5.2420000000000000e-01 2.8493717224444520e+01 3.2363355061621938e+01 2.7532269283735403e+01 2 -6 0
1072 444 1 -1.0484000000000000e+00 2.8464733637833380e+01 3.1459552530882345e+01 2.7846169428826631e+01 2 -6 0
2817 444 2 5.2420000000000000e-01 2.3555722128964469e+01 3.2496119784439152e+01 3.4573460930316820e+01 -2 -4 0
2816 444 2 5.2420000000000000e-01 2.3075223030928214e+01 3.1197177380928917e+01 3.3962098117342457e+01 -2 -4 0
334 444 1 -1.0484000000000000e+00 2.5459916902983991e+01 3.0953081161954486e+01 2.8205596544378569e+01 -11 1 0
1762 444 1 -1.0484000000000000e+00 2.9419295445391306e+01 3.3200253614138674e+01 3.1015189131176975e+01 3 4 0
335 444 2 5.2420000000000000e-01 2.6391994043700183e+01 3.1155032888106021e+01 2.8123867992631979e+01 -11 1 0
532 444 1 -1.0484000000000000e+00 2.9021045982653575e+01 3.2139978289456728e+01 3.4246091923563895e+01 1 2 0
2815 444 1 -1.0484000000000000e+00 2.3140461611838454e+01 3.2136444779635951e+01 3.3789608508668231e+01 -2 -4 0
534 444 2 5.2420000000000000e-01 2.8386809716829713e+01 3.1608990404094776e+01 3.4727785102777382e+01 1 2 0
336 444 2 5.2420000000000000e-01 2.5392546705674565e+01 3.0029106528879687e+01 2.7964839328055938e+01 -11 1 0
1185 444 2 5.2420000000000000e-01 2.6089732564448109e+01 3.0953718171826807e+01 3.1114746361077373e+01 -2 -1 0
533 444 2 5.2420000000000000e-01 2.8544485510950963e+01 3.2939632818616097e+01 3.4023210814399036e+01 1 2 0
838 444 1 -1.0484000000000000e+00 2.4386402041187150e+01 3.3483968993375385e+01 3.1836067951138645e+01 0 -4 0
2867 444 2 5.2420000000000000e-01 2.4388800662675759e+01 3.3793886961684457e+01 2.6676745474886573e+01 2 0 0
840 444 2 5.2420000000000000e-01 2.4028981281409330e+01 3.3247929511161303e+01 3.2692086480501892e+01 0 -4 0
839 444 2 5.2420000000000000e-01 2.4802254789542069e+01 3.2681786365738390e+01 3.1520154193669569e+01 0 -4 0
1183 444 1 -1.0484000000000000e+00 2.5189557888922362e+01 3.1172555732365552e+01 3.0873856881899851e+01 -2 -1 0
545 444 2 5.2420000000000000e-01 2.8344446732146647e+01 3.1357759972808271e+01 3.1700757967489707e+01 -6 2 0
1184 444 2 5.2420000000000000e-01 2.5221260129970126e+01 3.1310615999267952e+01 2.9927196269419646e+01 -2 -1 0
1336 444 1 -1.0484000000000000e+00 2.2687255065969545e+01 3.4088665618316149e+01 2.9784442093475498e+01 3 -6 0
1338 444 2 5.2420000000000000e-01 2.3242381567287904e+01 3.3653275669254434e+01 3.0431360566438894e+01 3 -6 0
546 444 2 5.2420000000000000e-01 2.8200369169765590e+01 2.9975780904671723e+01 3.1099698589784737e+01 -6 2 0
146 444 2 5.2420000000000000e-01 2.5215306722191333e+01 3.2184771019960344e+01 3.6373689871904936e+01 -2 -10 0
145 444 1 -1.0484000000000000e+00 2.4656010975898983e+01 3.2864772879642814e+01 3.5998166390083448e+01 -2 -10 0
147 444 2 5.2420000000000000e-01 2.4477532164104840e+01 3.3458524084634696e+01 3.6727438296272233e+01 -2 -10 0

Velocities

3001 1.6041710136233550e-03 6.7384552862832670e-03 4.8193224402888696e-03
3002 1.7612524260064415e-03 5.7509563811372361e-03 1.2189976591678873e-03
3003 -4.7329074584593128e-03 -4.6732741375233615e-03 4.4835206898120612e-03
3004 1.9466174869392296e-04 6.5774475261812775e-03 6.5099981840161508e-03
3005 5.6014204678288904e-03 1.6766400933990587e-03 4.8686189026920079e-03
3006 3.2899394531487399e-03 -5.2051354429710059e-03 2.3931553572350598e-03
3007 1.4565112891524693e-03 6.0123358513165569e-03 5.8044188402662164e-03
3008 4.9986546071500706e-03 -4.9657924961012036e-03 -3.2454347937122862e-03
3009 4.8553365426184806e-03 5.8506371848914137e-04 -5.9720290497388892e-04
3010 2.5783016094620545e-03 -9.2382502031770853e-04 -3.6964543679842078e-03
3011 9.2856689646227228e-04 3.0602202829717474e-03 -3.9232039767585977e-03
3012 4.8048209763609370e-03 5.2442193904498570e-03 -5.4441483788725412e-03
617 -2.3239480994652847e-03 3.5670468532228287e-03 2.0038814556862398e-02
695 5.0020230376892499e-04 5.9195969126479874e-04 8.8622682524544408e-04
1179 -1.0658741373078175e-03 -7.4354111534209158e-04 1.4183824219642215e-02
616 7.0214950716834205e-04 7.9475572340976693e-03 4.0908305959165174e-04
849 -7.5791810844475808e-03 -4.7060252670037750e-03 2.5421473959937732e-03
847 -5.6718326468402289e-03 -2.7254830304276174e-03 -1.6278119334989997e-03
696 2.5692533966066147e-02 6.2240896220788584e-03 1.1639114880408597e-02
694 5.2182510207353042e-03 -1.9718217374444383e-03 4.0516800019998068e-03
1907 -4.2051001838671869e-03 5.4894583016723130e-03 8.0926652699041587e-03
751 1.2986820659177734e-03 -2.0193655179248900e-03 1.4792563163041124e-03
2298 -1.0518862070173619e-02 -1.0838215332997763e-03 6.2086665698322984e-03
1581 2.1056760917086094e-03 4.1933035173484252e-03 1.3944848886349330e-02
1908 -2.1472548007045846e-03 -1.9797132411694548e-03 1.1884457066867646e-02
1906 1.7562315555847132e-04 8.9455308908753615e-04 2.4948502040215512e-03
1658 -1.0516413632738328e-03 -2.3659920360285438e-03 5.2301729745990793e-03
2408 6.3520398924521220e-04 8.3172032025410924e-04 -1.6504239216026409e-02
2296 -2.7146518439216485e-03 -4.2345130844094721e-03 5.1158787740303510e-03
2789 2.3667518505592660e-02 1.2485461142965759e-02 -2.3817991352202963e-03
2009 -6.8229776862674231e-03 -8.5916177753886883e-03 1.6610257214161519e-03
1580 -1.9169948637049170e-02 6.0729904173202984e-03 -3.1277426984253264e-03
753 -2.2905205485157523e-02 -1.8523785742831384e-03 4.5670980274571619e-03
1659 3.1449294810721624e-03 -1.3126978845435207e-03 5.6182998474149353e-03
2008 -1.1805363726820018e-02 4.8266239039780655e-03 5.0836929658737793e-03
1657 1.3201441508440370e-03 -1.6352911262766370e-03 5.3582469918600720e-03
1579 4.8283159202088698e-04 3.9289029154336375e-03 2.9018527510918158e-03
435 -2.7850414252768813e-02 -1.1699831924667165e-02 1.3310307027542304e-02
433 2.3967623741842701e-03 4.8731810759566228e-03 2.2823312657566509e-03
2407 2.3872151233158691e-03 -5.0153171617435023e-04 8.3693436511550511e-04
2010 -6.2089144549814885e-03 -2.9515676383726733e-03 9.2850517635994535e-03
2297 5.7036778125153370e-03 3.6288717256374096e-03 1.1377344597488509e-02
1830 1.0025787994132375e-03 -4.3605950149894733e-03 8.4018598143107293e-03
2944 -8.3385313271409011e-04 4.2707520101295648e-03 7.9914966211808297e-05
945 7.8190172839755021e-03 6.4588648834689628e-03 -1.2735704879035910e-04
2954 1.6521949907716927e-02 -3.7440582624493506e-03 -1.5062314335527630e-02
108 4.1569917652269700e-03 -2.9703520730201851e-02 5.9639994043008734e-03
93 -7.3698346281269294e-03 -1.2171406485701960e-03 -8.7402364906733702e-03
2705 -2.3635075888056426e-03 -1.7829104309753953e-03 3.0952657058896209e-03
2704 -3.1038882678121674e-03 -2.1943009885397064e-03 3.4669207012604348e-03
2788 1.0308143192706308e-02 -6.7502150466952140e-03 -8.3159338894291564e-03
1460 6.7740639245293874e-03 -1.3756286674027493e-02 -4.7207968023043811e-03
2955 1.0962928101468216e-02 1.0774030762318101e-02 7.2282039001726696e-04
2706 -2.3494441189791611e-02 -6.0135499402411479e-03 -8.9278023954264506e-03
107 -1.3680997895233840e-02 6.1595265283315341e-03 -1.7570904242754294e-02
2790 1.2577749226217367e-02 -2.8005948635651491e-03 -1.1201365437184566e-03
92 4.3970993651692445e-03 7.5027947299582285e-03 1.7948679169083165e-03
91 7.2871188661570495e-04 -3.0514025385724062e-03 -1.2708193199506990e-03
106 4.4598410225930802e-03 -1.5050598228070326e-03 -8.5496807395244151e-04
2946 1.3095171447786044e-02 -5.6481582889980828e-03 -2.6580520985762099e-03
1459 3.5888284584635953e-03 3.7608101380232268e-03 -9.4243958847687673e-03
1461 1.7359809505268536e-02 9.5667344651497420e-03 -6.7709656524345928e-03
2953 5.3819236251508662e-03 1.5228003565439260e-03 -4.9687397338860463e-03
824 9.3817084117104217e-03 2.1612624048885226e-03 -4.8506836155725605e-03
1533 -6.8841570635071979e-03 -1.0454689894470267e-02 4.2006418858619105e-03
24 3.6908329481390046e-03 -6.1463351579954669e-04 6.5931168147287025e-03
1199 9.0626660301894999e-05 9.7043494841980837e-03 1.8273793459322805e-02
1198 1.4836846116554675e-03 5.2694161672231336e-04 7.7428297661710768e-03
1531 -2.9895905402456020e-03 -4.3595084819149340e-03 2.0074147510856992e-03
1828 2.9846250362925123e-03 -3.6666602715473202e-03 -3.8215193796286582e-03
1532 -8.4094390233694651e-04 7.3099686287615034e-04 -4.4250274904165847e-03
2945 -4.1579830764070860e-03 -1.5550247228491725e-02 -8.2861010071428494e-03
1685 5.0163942326399745e-03 9.5791358267092556e-03 -4.4505887870079407e-03
1482 1.5684216928806671e-03 3.5378915610680293e-03 -2.9690475654844425e-03
2236 1.5852823365588163e-03 -2.8851968241105437e-03 7.1629304456078454e-03
2238 1.4232711606693222e-02 -1.1187888764859712e-02 8.9864647904303839e-03
2632 1.4595938078559279e-03 -4.2878426657063165e-03 -9.8846565826949122e-04
2280 -1.3790374307725056e-03 6.2655491693933349e-03 -3.4888356403238508e-03
557 5.5437909401677519e-04 3.2640727198858278e-03 -4.5329223863998262e-03
2279 -2.0060807212585415e-03 8.8163474364928772e-04 -1.0657633997045926e-02
556 1.3252597828417563e-04 1.1942557549534053e-03 -1.1782913392554000e-03
1481 2.3237911520855650e-02 -2.3491692296591229e-02 1.1408766171071054e-02
2486 -1.9986986802466972e-03 2.8697588403014999e-03 4.7201778355055370e-03
2634 4.5835522998773914e-03 -7.7654061070825094e-03 1.8324295937645074e-03
1388 -1.6413841726255499e-02 -3.6310258719732037e-03 1.3878876314987349e-02
2957 7.1357506869615906e-03 -1.3797849172338230e-03 -1.8747820424247462e-02
1389 -5.1340882372221397e-03 -2.7654463536204506e-03 -1.8326454153877343e-03
2860 -1.1157662308310329e-03 1.5143134697625255e-03 2.2302483480943335e-03
2862 -8.7343601841743355e-03 7.2360737026332996e-03 -7.9081677940145100e-04
1298 1.2415504691445674e-02 4.9108527779453861e-04 -3.3024901852429416e-03
1297 4.9873500356663802e-03 1.2480821307016285e-03 -4.0033597494534131e-03
823 -6.6513909227386035e-03 3.2348614782209965e-05 3.7611958755211857e-03
2487 -1.0272373932287941e-02 -5.0531008068847721e-03 -7.7626746211082748e-03
2861 1.7819006237486644e-03 6.6716416499591792e-03 -3.4370511603443150e-04
1299 -1.7670884677110973e-02 -2.9121751434125886e-02 -4.0272871861905734e-03
2956 2.6001651335814616e-03 1.0737331227653147e-03 -6.3810612053150848e-03
2485 -3.7502303175224712e-03 1.1287990064278385e-03 8.6936474381346038e-03
825 -2.2365436289706185e-02 -8.9870454000646343e-04 -8.1421543490429599e-03
1480 4.0868323150000871e-03 4.3264887405269767e-04 -1.1065713445811032e-03
1387 5.7949243826848425e-04 2.0983303726770865e-03 -4.5110831204213300e-03
2958 1.7528488311780516e-02 4.1494415030713348e-03 -1.8276254249139087e-02
2278 6.9609231664178499e-04 3.1256830557283583e-03 -5.9906735495024498e-03
558 -1.7887025331536710e-03 -1.9463419626909395e-04 -1.0460225997320836e-03
3013 -8.3405483838648131e-04 3.8418931560903007e-03 -4.9279066614318148e-03
3017 -2.0318410340396638e-03 6.8813318156783581e-04 -2.3346136464006823e-03
3014 5.5111066626926924e-03 4.3798244337418515e-03 5.8098573719292477e-03
3015 3.0334321374367013e-03 5.4024405573571323e-03 -6.1445358601124685e-04
3016 6.0966383954429619e-03 1.4801413189223496e-03 -3.0371179877621739e-03
3018 2.4400204422608918e-04 -4.4958226371460434e-03 -9.4908463727790601e-04
3019 -2.4713318369797167e-03 3.7841750495762900e-03 -1.2738997695569240e-03
3020 -6.1270787245705010e-03 -4.8308697013262807e-04 8.3132762113947664e-04
3021 2.3017919270119399e-03 -6.3681726258923294e-03 -3.6350135946308574e-03
3022 6.4867792132261804e-03 -4.0441444975954730e-03 7.0753105708791161e-04
3023 2.4839919583951493e-03 1.3144797128391119e-03 4.6833188934106954e-04
3024 -2.7995827610949181e-03 -4.2622828686029856e-03 2.5875917944819140e-03
42 -1.7046712413471560e-04 2.2183071010521922e-02 1.1992609799448996e-02
1415 -2.4300699161797562e-03 -1.0592469414840735e-02 -5.4974617925680896e-03
40 -4.0352129149318506e-03 5.3282846729281810e-03 -4.4318993252068636e-03
2950 4.8112518961622355e-03 -3.7934525503723416e-03 8.4354286044782938e-03
1414 3.0445845643040661e-03 8.3147527332627755e-04 3.3858453550976372e-03
434 -6.1133713867352326e-03 4.8371850011253298e-03 -2.3788638397672203e-03
1638 4.1897860272015162e-03 1.4636701162968710e-02 3.3781718248200343e-04
8 -2.1985098727017371e-02 6.8507036994600156e-03 4.7163885659895497e-03
2913 -1.2316979898566583e-02 -7.3956955041357504e-03 -1.7111476380599677e-02
2912 -4.5928161985420313e-03 -2.3853548916929819e-02 -1.8190356901186112e-03
2911 -5.4162925038504675e-04 1.2514350689352156e-03 2.1776980141338205e-05
985 -2.5185503666488381e-03 -4.3640075003071746e-03 -3.1847046408919142e-03
285 7.9181691222562304e-03 1.0919696276345495e-02 -2.3913677466962679e-03
283 2.7277882145315601e-03 4.4468931718279507e-03 1.4185791003783813e-03
395 6.5264336233158381e-03 6.7618771777610684e-03 -9.2059180473647272e-03
1416 -2.0931215734948357e-03 2.1549210115532368e-02 -6.6502556577748267e-03
396 8.2162829341687112e-03 -6.3005467056894164e-03 -5.4140965234786868e-03
394 9.9750472736556835e-04 -2.6523256805222723e-03 -4.6743812313913488e-03
987 -1.0920557538699539e-02 2.1378789625937866e-02 2.3862727555621140e-02
1636 3.8347304825594748e-03 -2.3369659571719457e-03 -3.8732807502087660e-04
848 -3.3717475676899862e-03 -6.3176585627643354e-03 -3.9057882442128183e-03
9 1.4230442462358897e-02 -2.9508335469751752e-03 -1.3838987660590309e-02
1637 7.7108834003243440e-03 -6.2120142450011774e-03 -1.5943202356511640e-02
7 -6.5118368829310330e-03 -2.4661042561804024e-04 -5.8545457440444745e-03
2952 -3.1387166351106964e-03 -2.9486539059011899e-02 -9.0223237734336492e-03
1379 1.1036997013875701e-02 -1.2641585736232133e-02 -6.2886199411114818e-03
284 2.3645802524648995e-02 -2.0689735875758102e-02 2.5345105794179437e-02
2682 -1.6338147996003926e-02 -5.7111333311226651e-03 -1.4490476085106421e-04
90 -7.9398063048705184e-03 9.2166092126181928e-03 -9.7945779914379721e-03
2513 -5.5331683472318585e-03 6.7622186740410786e-03 -5.1517409048636572e-03
2726 -3.2211090497853219e-03 1.8236790184077267e-02 1.5068498699325624e-03
2512 2.3802816990004146e-03 3.0596475585018051e-03 3.7004442716294145e-03
1829 -9.7076390922647138e-03 2.5701753147607202e-03 1.9051178763619858e-03
2129 -3.6396749588324216e-04 -5.0366128578554483e-03 -6.3526519797081852e-03
1485 -1.8874101630897424e-03 -1.6224145827923128e-02 1.2182364339541495e-02
1484 1.7054281629679199e-02 9.0159124693460543e-03 -1.6344438262351189e-02
1098 8.7328569469114024e-03 2.1446896562874150e-02 -2.1625885116702687e-02
2727 2.3697054664589268e-03 1.5639615533906120e-02 2.4393743494785017e-02
2725 -5.8280284058797281e-04 5.6590134062880632e-03 8.8543498861264266e-03
2358 -1.2088481652937622e-03 -2.7563682238217558e-03 -5.3189329125457006e-03
2357 -8.9210033966048675e-04 4.2474638316202578e-03 -5.6409819772128486e-03
2356 -2.6958591875893487e-03 -4.0257698883226290e-04 -5.3603492841297982e-03
2514 9.2025137275826910e-04 7.4770125557937130e-03 2.1535767858522972e-03
2130 1.2959441847950933e-03 1.4802896395386005e-02 -2.5327375568194744e-02
1378 2.1881808404408316e-03 -4.5774394917472922e-03 2.8350282620776233e-03
761 -1.5697150059280920e-02 -9.0321858086581282e-03 -8.7786648714375838e-03
1097 -3.8745895816904626e-03 1.3246370147876909e-02 -7.0891469110574571e-03
88 -2.6972569316031864e-03 -3.6644219616072541e-03 7.2823134329451930e-04
1096 -4.2374939876025017e-03 1.2425268399458634e-03 1.3125879867980155e-03
2128 -4.7536523197294666e-03 -5.7670416751071946e-03 -8.8830943210286371e-03
89 2.1999031335978091e-02 2.6262439709830777e-03 9.5631211089793992e-03
1380 -8.2929615760943438e-03 -1.9661352777499098e-03 1.7280137047979416e-03
1483 -7.0962142120016081e-04 -1.9310832164834899e-03 -2.5670739181974326e-03
1520 2.8176138360236562e-03 7.7735595234869131e-04 5.3892186104360189e-03
762 -1.7096969441703667e-02 -1.3487153682922842e-02 -1.4214816825755138e-02
760 -6.0124112216423134e-05 -6.1946444212204201e-04 1.0812797558436345e-03
1200 4.0781721586651701e-03 -1.5690666392421209e-02 -1.1236367726974620e-02
680 -2.7410278977252072e-03 -1.3557071349472108e-02 6.9510560354467755e-03
679 -4.7220887122793112e-03 -2.9522271855168349e-03 1.2764804272840469e-03
916 -2.4438793202877680e-03 5.3805905167888016e-04 2.6535264267965033e-03
1 -2.9795404867050839e-03 2.8098031719399354e-03 -1.1851216330914576e-03
2 4.9630622016381106e-03 2.3124156061436656e-03 -9.4732053215301031e-03
917 1.5729019013310669e-02 -2.3434195961750570e-03 7.4149022831306284e-03
2633 -6.9192663586105103e-04 -8.4647136372237811e-03 -8.1828264747381523e-03
2214 -4.6380674039696128e-04 1.7335842586648817e-02 2.3111023255792153e-02
2594 -2.2203265714841144e-02 5.2448306772044937e-03 2.5333524340563581e-03
2252 -2.3702394849542965e-03 1.5400315362262626e-02 -8.5554367946406966e-03
2701 1.1922031034937903e-03 3.4811034185645867e-05 -4.5983194428506546e-03
2251 -8.1401780420481771e-03 1.1179252665482033e-03 -7.0434837043682232e-03
1001 2.1381853885885833e-02 -1.1445008427815660e-03 3.7579341516238714e-02
2213 -1.0232436416338119e-02 1.3181924429196020e-02 2.2097215150131539e-02
1208 1.3152754060548333e-02 -1.1560006305227988e-02 1.6055212808931622e-02
2253 5.8342724634841865e-03 1.9817464643875227e-02 1.2543745599536433e-02
1874 7.2939690873881047e-06 -4.1235207775461597e-03 6.0016638155572133e-04
1209 8.9988382435202355e-03 -9.3164721868475315e-03 1.1239932804492668e-02
2703 1.3796036346420024e-03 2.2976760610973405e-03 -2.8809380331313839e-03
1207 -2.2516598370104462e-03 -3.6791651341727084e-03 1.0521701606931871e-03
1875 -4.1918100147131055e-03 1.0810852350413549e-03 2.5807748265449866e-03
1873 -3.4379486480974435e-03 -3.1366150920139444e-03 3.1703512981229760e-03
2702 -7.2665351060719190e-04 -1.7723293266158379e-03 -4.5149242347377475e-03
918 5.6099421830682929e-03 -4.3438613208100331e-03 9.6007305849060299e-03
2780 6.2960985894149604e-03 2.7125870237322467e-02 1.1033894736217945e-02
2871 -1.0165866017648637e-02 -7.0719606346148446e-03 1.3264003492976170e-02
1225 5.9831415464175674e-03 2.8194071437257751e-03 5.4554886206576317e-03
2595 3.7223239024910060e-03 -7.4311935821831559e-03 -2.1601328466248249e-03
2869 -1.9982696567666905e-03 8.1112800260363521e-03 -1.2451526256586946e-03
2870 7.4537536362686823e-03 1.2969716094518817e-02 -3.7381899703508772e-03
1227 4.9256721434046257e-03 2.9003741058756453e-03 2.0535525628208654e-02
2593 -4.2491266005332878e-03 -3.0134086774746740e-03 1.3441456635472013e-03
3025 1.3778675375293579e-03 4.7742007355386744e-03 4.7780484218828707e-03
3026 1.6791757583780580e-03 1.7044432489421625e-04 -6.3245230546376324e-03
3027 -4.7166360692771202e-03 2.0267520468139249e-03 -6.4877608508005112e-03
3029 -6.1538175419846106e-03 3.6320688122468627e-03 3.2994027221948836e-03
3030 5.5803446329104781e-06 3.2875099019824524e-03 1.2764939850803576e-03
3031 1.2242796696299973e-03 -2.2156011715367243e-03 7.6121267714928916e-04
3028 -4.9019463080751809e-04 -5.8782941411064608e-03 -2.0090385244411337e-04
3032 -2.3179397926681201e-03 -5.8558906729530170e-03 2.8516888813931674e-03
3033 -1.7163692279389912e-03 -5.9641365198683819e-03 -2.3784199798894314e-03
3034 -2.3827124490556841e-03 -7.1975819555041628e-04 -1.9811021440726698e-03
3035 6.0078591038667129e-03 3.2965738812506524e-03 -6.4491335347387291e-03
3036 -4.8752624923135450e-03 3.7245780813600377e-03 -2.5206003272025320e-03
1168 -4.7719165636567265e-03 1.9224502044123308e-03 8.3624658645205133e-05
1170 2.8732327987893037e-02 -2.7925201436290036e-02 1.2396812624298750e-02
1443 9.7989711031982833e-03 1.1432701584716095e-02 1.3180459939121283e-02
2186 -7.2601256298052410e-03 -1.7457868257404620e-02 1.6701676128661292e-02
986 6.7401756248089018e-03 1.3062811750642578e-02 2.3058295614650667e-02
653 9.8626627663774783e-03 -6.1853164053856362e-03 1.5428425883973842e-03
2842 4.7679958819765644e-03 2.4597213038757373e-03 9.9404831935868618e-04
2843 -2.9632542077235327e-04 -3.5240303249851591e-03 6.8474905586993796e-03
2844 5.1722747029159201e-03 6.9383088741559774e-03 -5.4045169145158205e-03
938 -3.1133020180700119e-02 -1.1528585500442230e-02 -1.1618474793051536e-02
973 6.6603283117743200e-03 3.9406789304980878e-03 4.6201690197376812e-04
1169 -2.2768914667055589e-02 -1.9033436784960899e-02 -9.0504245137444151e-04
939 2.4304332985572653e-02 5.6117669592867963e-04 -2.4457728489282446e-02
170 -1.3418998982737690e-02 7.0301920768715874e-03 -3.2107644396691037e-03
1305 2.2869446168392878e-02 5.0865911595619380e-03 2.5402828596374685e-02
1303 -5.7499104554078855e-03 8.0218896608938721e-04 -3.1543235279560093e-03
169 4.6185284137130762e-03 5.4533716967577117e-04 4.8348201075939417e-03
2681 -1.1822345297988529e-02 -2.2034896417556572e-03 -9.5061628967681188e-04
171 1.3065264000175644e-02 -2.0813625417937564e-03 8.0671089828248284e-03
2680 1.2130700598628609e-03 2.6341105691149672e-03 4.4381382464165698e-03
975 -7.3285099162044157e-03 4.7515461891809493e-03 7.5982900647210121e-03
1720 3.7102479731426015e-03 9.4734125782288889e-03 2.1929681670346981e-03
280 7.6855063376624457e-03 4.2707512539882295e-03 -5.7203499783724373e-04
1304 -9.0353236379242651e-03 -1.7148717691544360e-07 -6.1604574840621587e-03
654 6.7173899578681284e-03 -1.2038117520441262e-02 -6.0216591679238748e-03
1410 1.8684400998676594e-03 2.6801556684167460e-03 -3.5727811954484830e-02
1408 2.0764900717714862e-03 -4.4821161379769096e-04 6.5094074424210235e-03
1913 1.0207940635049212e-02 4.6886908872045057e-03 -2.0953830847313025e-02
1721 1.2817729477155825e-02 5.6298255045635981e-03 -1.2722598128101512e-02
1914 -1.1070898934185055e-02 9.9580670669292010e-03 5.2697423497823359e-03
282 8.8504901651402425e-03 1.5865187911986829e-02 7.2122208216010512e-03
1912 3.0915086806275970e-03 -5.1456707545748347e-03 -1.8836941080415061e-03
974 1.3584407872507495e-02 -9.3352839131154008e-03 1.2771562672340833e-02
1468 -4.1425184007196237e-03 8.8913311502113908e-03 1.4331272309299225e-03
2660 -8.5786986160448931e-03 5.2475098431326098e-03 7.8454450983566903e-03
2460 9.4126757090526644e-03 -1.5951742373153062e-02 9.9977873616915371e-03
664 -5.8792829840268650e-04 3.3405556294233223e-03 -2.7636993043174598e-03
665 -1.0484047831532436e-02 6.6123259349240467e-03 -3.5192545408948808e-03
1722 -3.7093192925377618e-03 1.4818829605436503e-02 1.5251883247249524e-02
2246 -1.4673068706489787e-04 9.3163929364831893e-03 1.7640827635869410e-03
1526 -2.5716517293602581e-04 -1.2657822443449440e-03 1.8600557783983421e-03
2459 2.3356213952523083e-03 2.6552453555826853e-03 -7.3930384032403510e-03
666 9.3095796816230637e-03 -2.7675859916020923e-02 5.9808568876144165e-03
321 1.3309899232499001e-02 -6.0458768814876419e-03 6.5675796374274247e-03
320 1.8435573481565411e-03 1.8498788675136036e-02 5.8466537221285577e-03
2245 -1.6566031739310501e-05 -8.6445040209006292e-03 -5.5979791985826368e-03
1527 -6.1242766119966232e-03 6.9359310034615403e-03 1.6623942794693918e-02
72 3.5461317698264598e-02 -1.3280161936520927e-02 -1.8395831590819827e-03
70 3.7766194846506696e-03 -2.7350627693694040e-03 1.5624242555713759e-03
2247 -2.5153526116909342e-02 -1.0001636399385460e-02 -1.1591888093491447e-02
71 -2.7552355340377390e-02 8.2168324137081063e-03 3.7877113821953119e-03
1469 -1.5793455853732589e-02 -1.5168542191648732e-02 6.7215552220710618e-03
1746 9.6089331643927928e-03 2.4054419855188722e-02 1.8175218529721836e-02
1525 -2.4195089350185529e-03 -5.3186416407266287e-03 -3.3168637744431912e-03
2458 5.5305460563175278e-03 -4.2699762134863475e-03 -1.4387771959508034e-03
319 -4.4821928215295191e-05 5.5465114114200695e-03 1.6529748812054846e-03
1470 -6.8521843853153524e-03 1.4548027042115164e-02 -1.0812398022664109e-04
1163 1.2556387737437485e-02 1.5322593590566586e-02 -2.0775634930016991e-03
1164 2.6177362300946879e-03 -1.8456272963462638e-03 1.5636715812758103e-02
1744 4.1393210817468971e-03 -7.1674119540417617e-03 -4.9249063325403194e-04
2480 1.1561311146855253e-02 1.4660809548695341e-02 1.0795931324439649e-02
601 -1.3054337724047944e-03 1.4567243765445115e-03 1.1552194221545932e-04
1283 4.5105972052508362e-03 1.0164848183942249e-02 -1.9223462359192665e-03
602 -2.3546049360854142e-03 -1.2846367101602304e-04 -1.8055479281769208e-02
1284 -1.6436055581589702e-03 1.4401224490903925e-03 -9.7409716129227726e-03
2781 -7.7268290984624979e-03 -2.1313667754846922e-02 -3.0236429625620565e-03
2766 2.0963607437557884e-02 -1.0277118920749456e-02 -3.2130152554324036e-03
603 -2.8913395504802045e-03 -5.6211118652115966e-03 5.9930594585709167e-03
1282 4.3935944389413033e-04 5.2549437747622749e-03 -5.6012290637997147e-03
1891 6.4129489762641207e-03 -4.8025464945046972e-03 -2.4768443585245653e-03
451 2.1301614732648294e-03 -1.9708197809028671e-03 1.6443619584066817e-03
1893 1.3913791405686922e-02 -1.4605923955128657e-02 9.1073782239525173e-04
1146 -9.9660516784634001e-03 4.4580846270676367e-03 -1.0674099580181153e-02
39 -1.1410617823367011e-02 2.1703850420437612e-02 -5.1172109688374726e-04
2657 2.2441719064984444e-02 -6.0588143841502681e-03 8.0181875685249922e-03
1649 -1.1950712162688696e-03 1.0155497838377403e-03 -7.9313204434957370e-03
2658 -9.0545063119260895e-03 -8.9275760284285386e-03 -2.1416366040609325e-03
452 3.6494804671933501e-03 1.4049492426038764e-02 -9.4510643501372650e-03
2656 -6.4660496611588624e-04 -5.0519612069601580e-03 -7.1788429428206275e-03
2779 -5.7820657792533666e-04 -1.2695633794227968e-03 -4.5554818008907687e-03
485 -1.4782561881721266e-03 1.3434320744569810e-02 1.0116417396888580e-02
484 3.2693529640383371e-03 5.8406145831816692e-04 3.1133436701294955e-03
1892 -1.0615039115351490e-02 -1.5836189019523796e-02 2.8254312910560672e-02
2669 -6.4926931428374934e-05 -1.1573823897944591e-02 9.7989848234310392e-04
486 1.2556212813825149e-04 2.7749886083915038e-03 2.0530780811557621e-03
2466 5.8229683522354097e-03 7.0151034649802296e-03 8.7156263948500994e-03
2248 -8.0666795250744776e-05 3.7949308017101954e-03 3.3620469382886187e-03
2249 -5.2915557090634823e-03 9.5472816166857211e-03 1.1232505846147909e-02
2250 -6.0400331003380367e-03 1.2982988194857535e-02 5.3364368536836550e-03
1226 1.0715506560540601e-02 -7.1693281523692370e-03 -1.1965035402447172e-02
372 -5.2472936154634572e-03 -1.2058822502494368e-02 5.1846524416469140e-03
308 -4.0060795886098129e-03 -1.0172782644100752e-02 -1.0041345220008434e-03
309 -1.3727052875440382e-02 7.2685087625009364e-03 -1.3671891165066132e-03
307 -6.0971713534167830e-03 -4.1471928963405857e-04 -2.5809020737365932e-03
453 4.8068076835594310e-03 1.1225532460286129e-03 8.9545953177625341e-05
370 2.7575840110151844e-03 2.4934693073192194e-03 -1.1629059275306362e-03
371 2.0471580055534788e-02 -2.8142021378978390e-03 -6.6170131275660963e-03
3037 -4.3875641233876309e-03 -2.8051982546408011e-03 2.0278553457323918e-03
3038 -2.3569106183469863e-03 6.0944716442893100e-03 -9.6001003071264897e-04
3039 6.4682896583831981e-04 3.1153297499748518e-03 1.9340272317437083e-03
3040 -5.3640728015718134e-03 4.9046338415401286e-03 -3.9117363680767989e-03
3041 -2.5389887592209091e-03 4.6043309514907113e-04 -1.0943767454402104e-03
3042 -3.4209057437247685e-03 -2.6664099281478362e-03 3.7765545621296326e-04
3043 -6.1910870807558730e-03 4.1599784154577220e-03 5.6668115113152591e-03
3044 -1.7944099488877721e-04 1.5417740400135982e-03 5.7471599598485001e-03
3045 3.0322139093752957e-03 -1.7336578806468939e-03 4.2151245089857752e-03
3046 -2.2726699655992015e-03 -5.3095607578378832e-03 -5.3185743152885786e-03
3047 2.1808585911481373e-03 1.9203217871094583e-03 5.4580439514791404e-03
3048 -8.6808398032977186e-04 5.4765098868647831e-03 3.7733325754694788e-03
1554 7.6064277581621839e-03 -3.8461327678040781e-03 1.6699449679780681e-02
1441 -3.1377203801724710e-04 5.1370537119116064e-04 1.8862967785537726e-03
1442 -1.7577124988387448e-02 9.6597797836998241e-03 -4.1813705041368718e-04
1552 8.9755386991424463e-04 3.8777730219558709e-03 -2.6395133074040115e-03
1553 -6.6538283232023491e-03 9.3540305546965311e-03 -1.2177735526143091e-02
2293 1.9904276092886472e-03 1.6662555429638999e-03 -2.5192520963395917e-03
1955 5.3142130142712057e-03 9.6376426625116303e-04 -1.0089132857025382e-02
1954 6.6319325487516449e-03 -5.0608941177328415e-03 -7.1438019406903372e-03
1887 -8.6179973843356350e-03 -8.0151407929997965e-03 1.0758106146754371e-05
2792 1.0660572567525272e-02 4.6311706349473252e-03 5.8886773432789063e-03
1280 -4.6046430276646773e-03 -1.6590742989671429e-03 8.8315691196881127e-05
2421 1.6207754458851822e-02 -1.4283719039405673e-02 8.4300022830502003e-03
2419 -4.4623753854334917e-03 -5.9338328709643588e-03 1.0859797532939731e-02
517 8.0640209801956220e-04 7.1770814282233925e-05 1.0877934906281646e-02
2420 -1.0460536701574463e-02 4.8226747043939261e-04 7.6282507282219745e-03
1885 -3.2202821435402878e-03 4.1842163097807213e-04 1.7290817160170726e-03
1886 7.4596616887543895e-04 5.1842670839092036e-03 1.4961145478937737e-02
459 1.6076208190681226e-02 2.1611533964557901e-02 -2.9087606164585167e-02
2773 -4.3460408591798234e-03 -5.6057577653360665e-03 4.1330950010946251e-03
2393 1.0753424346390343e-02 -1.3607052108303867e-02 3.4088244678456593e-03
518 1.8720133581046324e-03 -3.6964825773863647e-02 -1.2945236450425531e-02
281 -1.5703961361478266e-02 3.0872716776093538e-02 -1.7110052462002409e-02
2392 2.4267252007755999e-03 -1.1056772947620648e-02 -5.6563328450678543e-03
2791 5.4570602598115383e-03 -7.2287625799843562e-03 2.1519109280203493e-03
1279 2.9769558829650353e-05 -1.0685805847238763e-03 -2.1693276616000460e-03
457 2.8822233548671874e-03 -4.0853633525453027e-03 9.2608209800867946e-04
1956 1.0870165276791946e-02 1.4931354054629415e-04 -1.1505773999299599e-03
2294 1.3617989967102281e-02 2.4737468933028308e-03 5.4483955021841172e-04
1998 2.9625082443142741e-03 -1.7819110240440292e-02 -1.6428179796216802e-02
458 3.8843475959413190e-02 1.3720243670327734e-02 1.0270681379561960e-02
2774 2.6981073669088494e-02 -1.4195034760656811e-02 -2.9927261708515640e-03
1750 -1.0166922330179175e-03 1.2510266785143536e-03 3.9503079526323525e-03
1997 7.1862309042622840e-03 1.1556848726102329e-02 -8.1433790811077413e-03
1782 1.0964131919774585e-02 -1.6559431652430498e-02 -1.9271512603463391e-02
519 -1.0760648580086591e-02 -8.3500932819918754e-03 1.6619025061794482e-03
1781 -7.6847948838128831e-03 -1.7519574536858897e-02 8.1768500123223196e-03
299 -1.3246567216850479e-02 1.4476306228455044e-02 1.1528084909515367e-02
2360 -1.2012510074242855e-02 7.5291228223435848e-03 2.2268657207966249e-02
1111 1.8266000678388082e-03 -1.0888929546931206e-02 2.9934634473053339e-03
1281 2.0809212424599214e-03 2.0984839475504643e-03 -8.5982529409407756e-03
298 3.3161236680779383e-03 -1.1522037756065472e-03 5.1589524124852505e-03
642 -1.8697933848840831e-02 -1.7494355891608779e-02 -2.1814912199060579e-02
2359 -2.2556133969799273e-03 7.6009156351894260e-03 -3.7596273077691910e-03
300 2.2227002633500175e-02 3.6165198642480719e-03 1.5082284898020330e-02
1753 -2.5370311277762383e-03 -2.8271458812559099e-03 8.1408132987980308e-04
1755 -1.5515617055821629e-02 -8.0582789567685449e-03 1.4788236469326418e-02
1754 -1.2604397954516710e-02 -1.9166462108563622e-03 -9.5109112747553178e-03
2229 2.0421050429233974e-02 3.8519072774926438e-03 -3.5491512850789509e-03
2227 4.4629206601949482e-04 4.7385946940471388e-03 -8.9240916054638883e-04
1780 -1.8422675366419083e-03 -7.0818470117602911e-03 -9.1644155688579559e-03
1996 -1.4478634377987664e-03 8.7524647345689022e-04 2.6744128625200321e-03
2069 -1.0374194807157477e-03 -6.6638307490394736e-03 9.7669493317845699e-04
2290 8.0363075548808534e-04 -1.3042147722566540e-03 1.7468751228824513e-03
2291 -8.9162701716224545e-03 7.6638120512899114e-03 -1.1651218492915765e-02
1113 2.8206640839287512e-03 -1.6613103321330789e-02 2.0988055092417751e-03
2068 4.5826133665686324e-03 -6.2029762786204991e-04 -9.5803704310106503e-03
2070 -1.5062131506346183e-02 4.7223039852965533e-03 8.0977765258542864e-04
1162 -4.3523418936875072e-04 6.5053187498047829e-03 1.5159278948422086e-03
1574 -2.4175629914563552e-03 -8.6400237946349240e-03 6.4392476761789960e-03
2764 1.9310286946592090e-04 -8.0851515292746810e-04 1.4268680733024862e-03
2292 4.3849546550720009e-03 -9.5370174688393459e-03 5.9699949878815025e-03
37 -7.1540346226819983e-04 6.8245883188805248e-03 -6.0706115495567639e-03
2022 -8.1877627047242732e-03 1.1225031954046786e-02 1.9217923621679598e-02
2329 -5.6645368668262110e-03 -6.3950030941813943e-03 -3.0952846898740318e-03
509 6.6848628607366371e-03 -1.6361898935061150e-02 -1.5610127090242450e-02
510 -7.9308940210638286e-03 1.2341285115362272e-02 1.8896860905226649e-03
1573 -2.4266709242940420e-04 5.9898387550770928e-04 -1.2037362184197113e-03
2439 -1.4438336616054385e-03 -1.8909367366514559e-03 -7.4730955547200736e-03
2689 5.3638511414597469e-03 6.4691426333647129e-03 6.1032512968632636e-03
38 1.0726183669168306e-02 1.8151750704533353e-02 -3.7594153001324435e-03
508 3.5062536555301770e-03 -5.2171758854163922e-03 -6.6131367856764123e-03
2765 -1.7856454789256983e-02 -3.3977834662637593e-04 1.1332420532207353e-03
877 2.0489724711429477e-04 1.5806907814538828e-03 3.7628144722630006e-03
2020 -5.5055957271620279e-03 -3.6805441220999846e-03 8.6580615326842031e-04
2021 -1.0963617929617522e-02 2.6068673666005356e-02 1.5919702796989121e-02
1145 5.9350053828599800e-03 -9.0333357900636967e-03 1.1309707826101122e-02
2690 -1.4138154642164842e-02 1.4503676024990600e-02 1.2802769943941337e-02
1234 1.4617128088370126e-04 1.9281617251246468e-03 4.7224910103846017e-03
1235 6.9749295390046625e-03 2.4463072361268445e-02 4.0615727012216852e-03
879 -3.4193435535647603e-04 7.3676134333280690e-04 1.2027249697712534e-02
2437 -8.3771835632561499e-03 -1.5969323642572957e-03 5.5624533921247140e-03
2438 -1.0814432507086262e-02 -1.4764665117735477e-02 8.8978668879614656e-03
188 -5.5458007425403279e-03 -6.0427027148237623e-03 -2.9295118169022365e-03
878 4.0405070624336889e-03 -2.0714476855414981e-02 -3.5021337137768464e-03
1236 -1.7350227179625758e-02 -1.4684076609845560e-02 5.2266807018425910e-03
893 8.6154659512837524e-03 7.1507190767371859e-03 3.6253902165921245e-03
892 3.2352037776362547e-03 -3.6643108664948629e-03 1.4406644479860124e-03
1043 9.4654950756110842e-03 -6.3141585014844055e-04 -1.3276352616812728e-02
2330 -9.3175288636561538e-03 -5.0435338776814581e-03 -6.4835943388039533e-03
2331 -9.9132017727979437e-03 -3.0903329766215856e-03 3.4646127485728089e-03
3049 2.1642520776009792e-03 2.9265209908335885e-03 3.2264327737753034e-03
3050 7.5643154033486876e-04 4.4706378881008424e-03 -1.8343830709729358e-03
3051 4.2631115339236293e-03 -2.2998572469371055e-03 -1.4326240329573070e-03
3052 -6.0736556870505092e-03 3.7076450957858401e-03 6.3372441080858976e-03
3053 -3.3869856535380799e-03 -6.1338595321312845e-03 -4.3972081418817776e-04
3054 -5.0136559728125802e-03 -1.3277059991774966e-03 -2.3458257347109437e-03
3055 -1.4563179257932714e-03 2.9760857005575892e-03 -4.0751080673990343e-03
3056 -5.6305772005864113e-04 -3.3314609011664748e-03 6.6352638443576231e-04
3057 -3.4762088541500876e-03 1.5604544562272341e-03 -4.1893889851165505e-04
3058 -2.5371745384955391e-03 4.2747196463677143e-03 1.6893859932037070e-05
3059 -4.2066730665177385e-04 2.2039716111176958e-03 -2.4798551759644774e-03
3060 1.4450264260950851e-04 3.8889687378856003e-03 -7.0957824010480744e-04
2400 1.4338787427736912e-02 4.3461924661065601e-03 -8.7557913313266577e-03
2398 -4.3170544763293638e-03 -5.0440557728197999e-03 7.6448139148095375e-03
865 4.5365105377222961e-03 2.7886366807893063e-06 -6.0436381376438343e-03
2399 1.0701931447761511e-02 -9.9410352383126638e-03 1.9518329507006277e-03
866 1.6714029199834678e-02 1.0875169534948525e-02 -6.2161543938551809e-03
830 -2.3550694692826574e-02 -7.6876798184039889e-03 1.2286506131671900e-02
2258 1.3823247798945455e-02 2.2524269338686662e-02 8.1905292182122124e-03
831 2.1484151805987943e-02 1.6032930238689376e-03 -2.3015402349235415e-03
2257 1.9740948722603448e-04 2.9981347876162313e-03 5.3834916707692507e-03
964 3.0885864114617921e-03 -9.7251586811252892e-03 -1.1735242496776928e-03
1751 2.8824841785297867e-03 1.6297277905890337e-02 1.4070211110123998e-02
2462 3.4704092011064347e-03 1.9467284139088856e-04 2.9075954380207332e-03
2259 -1.0572746557466185e-02 7.7516936830560714e-03 2.4520362155979938e-03
2463 -5.0996173457743500e-03 5.8902565605820668e-03 3.7976103048016807e-03
2808 1.5630607601388541e-02 2.5765813209211036e-03 -3.7905030147171643e-03
2461 -9.3162712079543862e-04 -4.3812250110051255e-03 1.8572206686736971e-03
924 1.6708264337374607e-03 7.7388380466332301e-04 -1.8172631112616956e-03
2806 -2.9133365899932724e-03 6.9087327246144326e-03 3.6015938472368130e-03
922 -1.6443150889459972e-03 -4.4901752407110179e-03 -1.7751331259209147e-03
923 2.3652810806933620e-02 1.9474754846705578e-02 -3.9083060654038840e-03
2807 3.1210483362640417e-03 6.1501026205066098e-03 -2.9777544757722150e-03
2295 1.2745290196486880e-02 1.5027226226099260e-03 1.0369000527881906e-02
896 -5.7227022017977240e-03 1.5650564864657487e-02 -6.7055020800653158e-03
1928 -2.3893005608695127e-03 1.3828988799388629e-02 -1.5181347522798783e-03
897 -3.5704517863514250e-03 1.3421126115676809e-02 -1.1819066274277923e-02
895 -3.3670596908221915e-03 3.6956380305669832e-03 -1.7986248568922674e-03
763 -1.7556719574235331e-03 -3.7878908937419679e-03 2.9511706774854171e-03
966 7.1335800183784147e-03 -1.8785421416846245e-02 7.0732157397823672e-03
2907 -3.7925634777855972e-03 -9.8115744515276590e-03 1.1401122466179666e-02
2036 -6.6284350173896750e-03 6.2125418501322192e-03 1.8982734503402324e-02
1929 3.5358533835659281e-04 7.8105591110782351e-03 7.7177377036241157e-04
1927 3.4236556368936076e-03 6.7457229400016863e-04 1.9754766992822912e-03
1752 -1.7241965734763334e-03 5.4933654831931435e-03 1.9375866058019657e-02
965 -5.8504569962179200e-04 -3.7991120826984652e-03 -2.4008732188097724e-03
829 -2.4712677057306849e-03 -2.4849801318049501e-03 -6.4079790192664203e-03
1329 2.2355860050534820e-04 -7.9831254438705781e-03 2.5581359340265827e-02
2221 -1.4675572966546182e-03 1.6845793255754131e-03 1.5934073650709292e-03
2037 2.7023732063313752e-02 -4.4946688417737803e-03 -2.6432566520899021e-03
1953 1.5916703552078543e-02 2.5707238321068309e-03 6.2009755190593069e-04
2367 3.0551614435945589e-03 -1.7168467316555178e-02 6.8911689196416185e-04
2366 -1.0589282554565052e-02 -8.0172150414065731e-04 7.9137309046326317e-03
1951 6.1955306424690297e-03 9.4776786479059153e-04 1.9365935603305180e-03
1952 -5.0129260337039693e-03 5.9671316660181374e-04 3.1708483254382701e-03
1668 -1.8099771416180389e-02 5.1156859498832502e-03 4.8211234092792755e-03
1112 -1.5413113492979727e-02 -1.6226477492860946e-02 2.4692792725550675e-03
2715 1.1373778335475361e-03 -1.1397728351780960e-03 3.0776120970486152e-03
2713 1.0810794676826287e-03 2.6808514100714136e-03 1.2721236512165674e-03
2208 -1.5419178681162583e-02 1.7021200323986498e-02 8.5911780020932298e-03
2714 1.5600887310318068e-03 1.2806242362889917e-02 -1.0327108684942405e-02
2206 -3.9721864618642239e-03 4.4060993203426536e-03 1.9162681340241623e-03
2902 -5.4334002122576712e-03 7.5938836296212287e-04 -1.7904116311053685e-03
2207 -7.7074854792547423e-04 4.1254079644999583e-04 -1.0016395033178806e-03
2365 -5.6100584944066972e-03 1.6191462346481977e-03 -3.2690308004116059e-03
1362 1.8106151012636292e-02 -3.8450153109253161e-03 -1.1537620481537548e-02
2035 -1.7037405885340575e-03 2.8376759052135608e-03 -1.0592868629358669e-03
1842 -7.3050671603599397e-04 7.0742444827184637e-03 -2.6151245320053208e-03
2903 2.6171313739090374e-03 -8.5989852522732376e-04 1.4007387411264598e-02
2545 3.5783133722296786e-03 3.0664144252107030e-03 1.9217494679870575e-03
2222 7.9247553911421156e-03 1.6471535771945696e-03 1.0241432709760823e-02
2581 -1.7624809231840498e-04 -1.5408671644188312e-04 2.0671167397756990e-03
2228 1.2480438798251788e-02 8.5878142233234290e-04 1.4364847925311128e-02
2223 -1.1889239509710322e-02 -2.1736332020547704e-03 -1.7065468927811883e-02
792 1.2326701834417045e-02 4.7083364092979979e-03 8.3298751375884897e-03
1106 -5.0659616965837047e-03 2.5614861280847046e-02 -5.2604893454094434e-03
2758 4.8057788044050825e-04 2.2365565872142622e-03 -1.3049937421020898e-03
1643 7.4539007249480385e-03 -1.0585281750617128e-02 -1.1577036088922989e-02
810 1.4898277591607839e-03 1.2424789914726182e-03 4.3456721039744888e-03
1025 -2.6949035406061738e-03 -2.6871772713824072e-03 -2.3453230027430605e-02
502 6.8814270658076344e-03 1.7040425025841501e-03 -9.4058065023177272e-04
2691 6.2090165967845197e-03 5.3081543505766717e-03 7.0076402913708024e-03
1561 1.4261274763019700e-03 -5.9273895815996486e-03 -3.9436421022823734e-03
1667 -6.2174936845384192e-03 -2.1154151338082381e-02 8.8652707465410492e-03
1024 -2.4203201174476373e-04 1.8729343171472331e-03 6.9695480092486295e-04
2604 1.6112074902284318e-03 -3.5031624666517465e-03 -1.2342653009670105e-02
1361 -1.1499627602408488e-02 8.4544780870641177e-03 1.4870288378960655e-02
1360 1.1591241556718952e-03 2.6126553725861305e-03 1.2641958534380584e-03
1026 3.9841640553431681e-04 3.2308299200195412e-03 7.9393804927407607e-03
187 1.5014362052051119e-03 -3.6243994337504981e-03 9.0258657744933448e-04
1644 -8.0525260406526539e-03 -1.5659216464431653e-02 -6.7869863813304881e-03
1562 2.2959132713364635e-02 2.8516161456919719e-03 -2.6597493284914148e-02
189 1.4038639202351147e-02 -5.2703345632746481e-03 1.4361338928616076e-02
2759 -1.1070950706993698e-02 7.3423508393296330e-04 8.3607137491184026e-04
1563 3.3247429482027198e-02 -1.0024421612095663e-02 5.2747104445567822e-03
2602 6.4740881825539331e-03 -5.8806203958522629e-03 1.3747735854148780e-03
504 1.3055201011157338e-02 2.0328374348710819e-03 3.0492361409853799e-03
2603 -1.2368018855061627e-02 -6.1710760947279145e-04 -1.7372278839867823e-02
1666 -3.6535930092603084e-03 -4.4065152613840843e-03 1.4875859721423009e-03
809 1.6787210872031904e-03 4.7022339108972310e-03 -1.0268161790905981e-03
808 -7.5735185577074102e-04 1.7446755396311436e-03 2.1994081825183567e-03
2547 3.1207907631519489e-02 1.3500666759505234e-02 -3.7160255091603263e-03
1105 -4.5439585849869199e-03 1.8802471147002220e-03 3.9203939668926878e-03
1107 1.0654898579146024e-02 2.9348234828796668e-02 -2.2792083049372482e-03
1642 5.7648497383816048e-03 1.6134162946580420e-03 -3.4697813987828046e-04
894 4.6993781774914076e-03 -5.1754963397396755e-03 -9.7215445983997971e-03
3061 -5.3628127404192925e-03 -5.9483954811708547e-04 3.3568926318366592e-03
3065 -1.2233787586971945e-03 -3.5815463870731961e-03 -8.4514938760121752e-04
3062 5.8549292111727044e-03 -5.9732993395194963e-03 3.6859972243077225e-03
3063 1.5716700062371062e-03 -5.9595522528458076e-03 -5.3626076717142651e-03
3064 -4.2614304032322090e-03 -3.7227974186337465e-03 -5.6965179887028916e-04
3066 -2.9961278159520125e-03 3.9280647783015808e-04 -3.9087838711161314e-03
3067 -6.2710147014362182e-03 -5.3174833552218541e-03 -5.0870626473015481e-03
3068 -1.6914298421500374e-03 -3.0635785611951279e-04 -3.4037647390790567e-03
3069 -1.8025978189908129e-03 -1.2940620136034679e-03 2.8848950263694511e-03
3070 -3.8444353931770532e-03 1.9155268080181382e-03 4.9007939038985563e-03
3071 -2.8298994599951529e-03 6.4127217266568550e-03 -9.3377228490854308e-04
3072 1.4488232241645523e-03 -3.1530270902432288e-03 -1.5980461872965831e-03
1981 2.9682829325207269e-03 -1.1998521165272078e-03 2.0904294918542865e-03
1983 -4.5559531604809148e-03 1.3732709132283917e-02 3.3601145118996268e-03
1070 1.5470870691039183e-03 9.0844464960988143e-03 -1.1701329763758407e-02
2390 -4.7283372857994093e-03 -3.0172313878346667e-03 -2.6631351223007929e-02
2389 2.8902517300763821e-03 -1.0195605702789528e-03 -3.4210406311401789e-03
2110 -5.1082827925331602e-03 2.0728687610453698e-03 4.1116866151977701e-03
2835 -1.6177520924021160e-03 3.8138721907167270e-03 1.1443534440698671e-03
2391 2.0843086256973269e-02 7.9267436065387411e-03 3.9691193242833087e-03
2111 1.7021367007358873e-02 3.2974156108157727e-03 6.8783043516472556e-03
2321 5.9441325518096878e-03 -1.2425961717987077e-03 1.9267269953555980e-03
2112 9.2210199744751833e-03 1.0107908296452296e-03 2.2127369206145922e-03
2833 1.6068265798889418e-03 2.5241969329588628e-03 6.8402329226290623e-04
2834 4.9302721354755304e-03 1.4599118869552889e-03 3.4763946067238491e-04
2320 2.5484634657689247e-03 -1.1069289974593849e-03 -1.1715653420541442e-03
2322 -3.0351497984274955e-02 -6.5434605280020033e-03 -1.3918953087660424e-02
144 4.6974941360352507e-03 -1.0334945034061700e-02 -1.3380232330239338e-02
2054 5.4780053842640253e-03 1.0706521458661853e-02 -1.0325931407079256e-03
143 6.4562906720732251e-03 4.1204541723822022e-03 6.4698993259445755e-03
2053 -2.4781172284848636e-03 1.7753041225670810e-03 -2.6286871023794892e-03
754 2.0326153748141344e-03 2.4112548830398158e-04 -9.5812969249522654e-03
142 4.8365852174551867e-03 9.7333852812942238e-04 1.2499754201682810e-04
1963 -5.8805225018631838e-03 2.6858326047778259e-03 1.7257579497392099e-03
756 -6.9614434850605120e-03 -3.3650833305916414e-03 9.3133013969984042e-03
2672 2.4879776170756373e-03 -1.3764841293442678e-02 2.2535030394875519e-02
1965 -8.6548078969419066e-03 2.4457289405681260e-02 1.0039601561191047e-02
1982 1.3392738137270684e-02 -7.7796659182448940e-03 -1.5083013422977534e-02
2397 -3.8105179255569651e-03 -8.7716961370838016e-03 -4.6515706030518149e-03
2055 -2.1845688983987862e-02 -1.9065901942770736e-02 -1.4923791323935246e-03
2999 3.2559567815446484e-03 -4.0888512159364737e-03 -2.0945344167462897e-03
2500 4.8638394296287381e-04 3.6720402538888081e-03 -3.5871145668024021e-03
1108 1.9274160154526630e-03 1.5947927284118580e-03 3.6820860439625794e-03
1094 -1.8737307789297230e-02 1.4704896064720613e-02 -7.6702412929630943e-03
1768 2.5797983110193720e-03 9.7080180146343984e-03 1.9275043549314998e-03
1840 1.8563532157162940e-03 5.4475759290360751e-03 -1.1463098948202915e-03
1508 6.2058483545471168e-04 -2.5812907807665000e-03 2.4179214858530570e-03
2582 1.8731020866652948e-02 -7.4194543130595581e-03 1.4089193124651418e-04
528 2.5477426366266082e-03 -1.5819868495563705e-02 1.5670584216772037e-03
526 9.2998410533400334e-03 4.8871014937517776e-04 -1.1579671761397028e-03
996 2.2718880099759586e-02 -4.5187354378791855e-03 -2.0186911178743463e-02
1841 -1.7077690945584635e-03 -6.0760782711422549e-03 8.8489500706017982e-03
1109 -7.1042590323291870e-03 1.3181064672544126e-02 2.7207653427143799e-03
994 1.0665968186024119e-03 1.8668291474695049e-03 1.8309454102374816e-03
1698 7.5612738503333136e-03 1.4612798118537565e-02 -1.7276922471168446e-03
2502 2.7584975606000102e-02 1.1771471739250411e-02 1.8708595765130166e-02
527 1.1033724909734772e-02 4.4360451050646848e-03 4.0019263878508377e-03
1696 -7.0790336571114807e-04 -1.2703004418350558e-03 -3.7596723068005341e-03
2546 -3.2583701626864033e-02 -1.3935362369957502e-03 2.2049324213267909e-03
1697 1.4042264021862127e-03 -3.7067867454158121e-03 -7.3835206795661310e-03
1509 3.8696025392794477e-03 8.5539182609587500e-03 8.5806169130030218e-04
446 6.0080809622702095e-03 -1.7360632620092074e-03 3.8579717945261298e-03
1770 -6.5503116203729783e-03 6.8541499125323192e-03 1.4808361453733079e-03
1110 4.5041606308536437e-03 -1.6034499644148950e-02 5.6065061813451288e-03
2501 1.4902961816492314e-02 -7.9725255935246490e-03 8.7942609599515869e-03
995 -1.6670010258848871e-03 3.9620079763694090e-03 6.9711802446462273e-03
1507 1.5518538882798134e-03 3.6352726212824779e-03 2.8520308389694219e-03
2904 -1.2858616630479297e-02 2.5358143558479509e-03 3.5210009488678084e-03
2760 4.4830940184024419e-03 1.0890618959171944e-02 2.7944051996251335e-03
447 -7.7463901795888548e-03 1.5396549769460860e-03 -1.6144734410640830e-03
445 -4.4917952653738685e-03 6.1561971336991541e-04 -5.8863894220742129e-04
1216 2.0629118756734532e-03 5.6264106164278366e-04 -1.9089346281581592e-04
412 5.1174388283715217e-03 1.7276614521251699e-03 -2.5202995910531597e-03
1255 -2.9915657592781545e-03 -2.5195740084778422e-03 4.5491253141258297e-03
2078 1.2154870262449938e-02 8.1304680467620440e-03 -1.4391021157130958e-02
2277 -7.5699642902432888e-04 -8.5914572430554857e-03 5.4308069156269786e-03
1256 -2.3827537396134191e-02 2.4506081722935780e-02 -1.1042287296904821e-02
1136 1.9560601630011002e-02 1.1403510722718928e-03 9.6121650820200945e-03
1218 5.1602079881387323e-03 3.7198789350109734e-03 2.7121824022206796e-03
585 -1.0755982225418150e-02 4.8971238884225853e-03 5.7409355975610189e-03
2286 -1.7947905173591196e-03 7.2790550919157558e-03 -7.8733361515007563e-03
413 -1.3118838478599850e-02 1.1164329518279122e-02 1.7023093278532381e-02
1135 7.4621276176389893e-03 -1.2707239954430107e-03 -4.2045545025676976e-03
2077 -3.1077985299883966e-03 -2.7997412466569224e-03 4.4625173996185761e-03
2079 6.8543037528063771e-03 -7.5103921709534123e-03 1.6031553051258158e-02
503 -1.0645314521140627e-04 1.8859930503512502e-03 -2.8744844446217128e-03
1217 5.3699810154637624e-03 3.0161014162118096e-03 3.7434546456671580e-03
1257 -2.0645687691742023e-03 1.1502628292653602e-02 -5.3929200009033016e-03
2275 -1.6342993182318654e-03 -7.9678382914606010e-04 -1.6407066841420291e-03
1398 -7.6949610868862154e-03 -1.9783069435213036e-03 -4.5538286134023656e-03
1397 -8.7753500960670010e-03 -5.5832500893453684e-03 1.3676664076589929e-02
1396 -5.8591813752139101e-03 -5.9438746943220647e-04 -2.8694248370807534e-03
414 8.0939125266092527e-03 -3.4240948081977515e-02 1.4195463822582572e-03
1137 2.3048439200592827e-02 9.2564981849117371e-03 1.2962110670261373e-03
3073 1.4562596508420967e-03 1.7830507688813577e-03 5.9323226685095770e-03
3074 -6.1847196929763351e-03 4.4673801058501481e-03 -3.2332869982239724e-03
3075 -4.3952341259213580e-03 1.6716750613948131e-03 1.4532895475580247e-03
3077 -6.1180282418426743e-04 4.4065306418421728e-03 1.1466368527298521e-03
3078 6.2557930210384617e-03 -4.6788448952953254e-03 4.2264189466831199e-03
3079 8.1169615313602425e-04 -4.0325606557132691e-04 -4.6553790109859572e-03
3076 -1.8940133468743775e-03 -3.7688712982111880e-03 -1.2910316346774373e-03
3080 -2.6159152671122034e-03 1.4066921999290377e-03 2.9989739652220757e-03
3081 6.0518255273466137e-03 -4.7247397342118315e-03 6.5141754992252589e-03
3082 -4.2224063529419454e-03 -1.4399531020640090e-03 5.2069198371887575e-03
3083 -6.4943264065331517e-03 2.9849754715545918e-03 -1.3899934111960819e-03
3084 3.4701929817959648e-03 -3.5600334078493526e-03 5.7965649648008719e-04
2894 -7.7498492099539686e-04 9.5629003912056868e-03 -1.9548412456968138e-02
948 2.1062334999894143e-03 1.0897604286387343e-02 8.1256162124688919e-03
1687 -1.0001139613386429e-02 3.4564587009526964e-03 -2.2499624336117384e-03
1689 8.0212910177735082e-03 -8.3267752728160786e-03 -2.0965084360725704e-03
2893 -6.1899292114891416e-03 4.1685249081599655e-03 3.7463109260679767e-03
1688 1.3527860187803713e-02 -3.7501419359515960e-03 -6.3991470604407167e-03
151 3.5574698835159485e-03 3.6538011399676073e-03 2.5818096923021462e-03
2142 9.2436380326058280e-03 -1.6347305101529121e-02 -6.8534160529575016e-04
1240 -4.0301439569507347e-03 -1.5521052615183632e-03 -1.6305968437365021e-03
1879 -2.2347118278237890e-03 -3.7442462102826469e-03 -3.4673402606886150e-03
2568 1.1455418748961338e-03 1.1264560533275028e-04 2.5072159063542342e-02
2141 8.5710042112689608e-03 5.0146972505306338e-03 1.0477213783498796e-02
124 -4.8577215631879596e-03 -1.1475293720152897e-03 1.1444702903156830e-03
125 -4.4453513570953153e-03 2.3147645970722371e-03 1.4406446320936513e-02
794 -1.8929511633063755e-03 8.6098534468420918e-03 1.8932729248328482e-03
793 -5.0152787654481673e-03 -5.4797439107742210e-05 7.7922241979629433e-03
126 9.3681370782891654e-03 1.7618830035199449e-03 -1.4773560583615630e-02
795 -1.6261249771789429e-02 -5.6765850374150420e-04 -3.4041448349511269e-03
2895 -1.8968831199792670e-02 -1.9828065224034713e-02 -4.8460551826214997e-03
2140 1.6950031215019173e-03 -4.1564892369985174e-03 -1.9061125411798082e-03
1241 -6.4570194616294495e-03 -1.1933011810742111e-02 2.8112229763877098e-03
2566 -5.6213680982083319e-04 -1.6365088736401657e-03 6.9901491011261816e-04
62 7.6431976285199618e-03 7.0647777351440753e-03 2.8701314910892996e-03
947 1.0275971829943879e-02 -7.5810918702856160e-03 -7.3032962334412454e-03
946 -3.9235702168441394e-03 4.1021683838871493e-04 1.4276222247203978e-03
1242 1.0101297742154172e-02 -4.6211139065505054e-04 1.1842856938834509e-02
1809 -9.7905519492368467e-05 3.9902332741474330e-04 2.6041642970891636e-03
972 9.9202144891912393e-04 -7.6904146819591302e-03 -1.5266086182011833e-02
755 9.6032723682310511e-03 4.0401117907928511e-04 -1.9972485248545630e-02
61 -1.3265656983868200e-03 -3.2807357608212700e-03 -4.5374059325178715e-03
2567 7.2013958411232294e-03 -1.5831746871606944e-02 1.9963682789861390e-03
1807 3.1717397465093924e-04 -2.0515156036263818e-03 1.5033914076883843e-03
153 9.3340920151978844e-04 2.9717789374536572e-03 9.9220656807267760e-03
1880 -4.2130026171460014e-03 -5.5257313024810722e-03 3.2784011701005359e-03
1964 5.7916122363875378e-03 9.1094650336777834e-03 -6.6908892355513703e-03
2370 -8.5462665425820490e-03 -7.1813926371733210e-03 -5.4016102580689519e-03
1808 3.9224143501948800e-03 5.0015067713186237e-03 -1.6852749895925770e-03
456 -1.2274032195054190e-03 7.3318030904539625e-03 -2.4892291511334013e-03
2004 7.4172593212551144e-03 -4.3280727252948533e-03 -7.4906832929173498e-03
1502 3.4453969568161548e-03 -6.6683370412146739e-03 -8.8679895776988659e-03
3000 1.0717556212511385e-02 -7.3267252682008037e-03 -4.9681507055552793e-03
860 -2.1982474783368766e-03 2.8747761420025771e-03 -1.0414161429554123e-02
2002 -6.5575625694946505e-03 9.0407344009598182e-04 -3.8761436913046306e-03
1095 -5.8285414159337454e-03 -2.1421170590322627e-02 -4.6826021859065325e-03
2926 3.4599905371129132e-03 -6.8913353932540510e-03 -6.1743067045273053e-04
2928 -1.9480490710782550e-02 1.4390053646750380e-04 1.4802586915889343e-02
2927 -1.9659591602987993e-02 -1.2747285259886255e-02 -5.7872758953814614e-03
2981 -2.7073344495723486e-02 -1.0913774161971115e-02 -1.7451210244360488e-02
1093 1.4699228716262404e-03 -1.0521012195660517e-03 -2.2915396728202098e-04
2980 -6.2119571740469571e-03 8.4227405871027689e-03 1.9461598245451798e-03
859 4.5206727893387305e-03 4.1735496294526926e-03 6.1793756117557224e-03
2003 -1.3420544992730009e-02 -4.2754532573447326e-03 -1.2030826410151496e-02
357 -3.1313550538533837e-03 -1.0881948558632022e-02 1.3804592956188826e-03
2998 2.0783957735573426e-03 -3.5471036947580118e-03 -1.3245562713398594e-03
2440 2.8059584547445809e-03 6.8217278435196054e-03 -4.6078925534882246e-03
1503 1.3518768717589575e-02 -1.3165815032229418e-02 6.8203432369183664e-03
1501 -2.7187995413320170e-03 -4.6173435742973244e-03 -1.8237246393921446e-03
861 9.4779553595835987e-03 -1.6891930701328430e-03 5.9101368069990083e-03
2441 -2.4990886224325105e-03 -2.9785434524481091e-03 3.5786013006495372e-03
355 -4.7878869358703273e-06 -6.3492352077735986e-03 -3.8160422194839809e-03
2368 -6.7660458648723006e-03 -6.9115052526104240e-03 -3.6895712343565736e-03
687 -4.8308796295462603e-03 3.1949639636446770e-03 -4.4711751747205115e-03
105 5.3401933156956081e-04 4.1595595705867317e-03 -1.5498237254595081e-03
871 3.3055531076706347e-03 2.7803956924024012e-04 -1.0301449131940759e-03
2550 -1.2417669411094843e-02 -5.0841810799430115e-03 -4.2041909272591826e-02
103 2.4626978851532626e-03 -1.0519643656346617e-03 1.7036207893524273e-03
2285 8.7254819548136468e-03 3.1466554044930505e-03 -1.9221663475795101e-02
1516 -7.5739559773532064e-03 7.9961238195709638e-04 1.5458878507859081e-04
2284 1.7398549139809351e-03 1.7309396245175077e-03 2.7163837011180297e-03
2900 -1.4395751325679087e-03 1.3805107611203559e-02 6.6074134482586328e-03
1130 -2.3849074161140051e-03 -6.1474704826138598e-03 2.1368703347663963e-02
160 2.5809794031536235e-03 -1.5876167588679913e-03 -3.0607479646926361e-03
161 -4.7020758384430338e-03 1.9814094451762955e-03 -2.3902475731153126e-04
2442 1.7785998144743798e-02 -3.6197241533464613e-03 -6.7212988431698132e-03
685 -2.1602013762865896e-03 2.2639217818446826e-03 -1.4569039140528036e-03
2613 -5.9333856282407504e-03 4.3584176537016048e-03 1.0906178551323151e-02
2102 -1.4148960369585669e-04 -1.2748245868523909e-02 -1.2438207850766013e-02
2901 7.2742840056886568e-03 1.2139430650018291e-02 2.9836897516618353e-02
2899 5.0944690157303735e-03 3.0121223734108651e-03 5.5719662892034054e-03
2611 -4.3428887937414888e-03 2.8396081772117578e-03 -2.1026128656369300e-03
162 -9.4744436307721031e-04 -5.0292296567341147e-03 -9.8366061709972523e-03
2612 -7.2435701865593699e-03 -4.8628392694164519e-04 4.9477558937474570e-03
872 8.1453788146844171e-03 -8.9035955910132195e-04 -3.6184441557811646e-03
686 6.7252137191756015e-04 -8.8401213037921835e-03 -1.5780172376386892e-02
2276 1.8247803702488531e-03 -2.1047062866505255e-02 1.6573477392114559e-02
1517 2.3009244943134808e-02 9.8675102512894592e-03 -1.5310279195820831e-02
873 2.0662131163381231e-03 -4.0900104099255950e-03 -3.6484205660595342e-04
3085 8.2060681893904265e-04 2.6330375953291791e-03 5.9554228455218541e-03
3086 -4.7612017587749609e-03 -2.3798301225380815e-05 -2.9884956872066205e-03
3087 1.5048684107683038e-03 5.0921828563050622e-03 3.0065553699221262e-04
3088 -6.4786521901615182e-03 -3.5168177117023358e-04 -4.8591513643328052e-03
3089 6.1791367238480418e-04 -2.6722260818758188e-03 -4.0038161197313666e-03
3090 -2.8387463730368935e-03 4.4479207245600632e-03 3.1794064103042798e-03
3091 -2.6346845048852963e-03 6.0799671084749750e-03 -4.6418528415434063e-03
3092 -2.0388154768046628e-03 3.5166189405748407e-03 -2.9608049138592470e-03
3093 5.0575408729508365e-05 -7.8410145870532930e-04 -2.9668181955475464e-03
3094 5.6946347937852282e-03 -5.6321331830083672e-03 2.0415359901528266e-03
3095 8.1645012523884483e-04 -5.3521047370217259e-04 5.1432020703626648e-03
3096 3.0326743404633740e-03 6.0048074166837509e-03 -6.7803672295613292e-04
2940 -1.2042318144208405e-02 5.8962917892406543e-03 -1.2362087837475310e-02
618 2.1115236013593531e-03 6.1153172761067359e-03 -1.8630987094456798e-02
2938 1.1786729380985224e-03 -3.9974721185563649e-04 4.6622141888121660e-03
432 5.0460327719214562e-03 -8.0839271322308767e-03 -8.8170412461360103e-03
430 2.4418272731298947e-03 2.1037008459432603e-03 5.4379747040984496e-03
1690 4.8502953359031769e-03 -5.7260396340339265e-03 -3.5466920075580316e-03
1691 -4.2799137544676357e-03 -7.2941345721313951e-03 -2.2510260774019578e-02
236 -4.8001243109758295e-03 3.0744698969275715e-03 1.8082911720307019e-04
345 -1.8865306760330044e-02 -8.2968858003305688e-05 -1.8578481207379774e-03
1692 1.9130979316366048e-03 -2.6507923931832246e-02 1.5872037694235799e-04
237 -9.5925516714963025e-03 -9.9061242465318736e-03 -1.1659490620521420e-03
235 8.1112320152943536e-04 -4.3655252027104581e-03 3.2952770404748987e-03
1219 -1.8362900494969037e-03 7.1334598193553873e-03 1.8249906694770713e-03
344 -4.8620808198461741e-04 -3.3441993963555599e-06 1.8318228579716166e-02
2007 -6.4223675558569690e-03 -6.8791429164150892e-03 -2.6899936139625530e-03
1926 8.5047541785787609e-03 1.0083600449794655e-02 4.8230930512060382e-03
343 -1.9004274060841254e-03 4.6442572494484807e-03 -6.1540175574018724e-03
431 -1.2137735361321360e-02 6.9442214575064585e-03 -6.9880903628570775e-03
2168 2.8728302585903573e-02 -3.3995235855447982e-03 6.3269791971638113e-03
1924 -3.8076479778796461e-03 5.0720127101242718e-03 -1.9229426952310973e-03
96 1.5171847515899357e-02 -2.9543686049155848e-04 3.0399247629145889e-02
94 5.5380873007444074e-03 4.8426485032186453e-03 -2.1137109894779349e-03
2005 -8.3704165830293716e-03 -3.9516655113216856e-03 5.5628220595074201e-03
2169 9.6404065972504581e-03 4.3375769288671777e-03 1.3001495028457598e-03
2167 6.1159699459377513e-04 9.8301536550762865e-05 1.2576649731597246e-03
63 7.3093154316375311e-04 -2.7747102606326000e-04 -8.9097548155313983e-03
95 1.1125475339526441e-02 -5.8555424261451741e-04 -7.3556398805929872e-04
1220 2.0616949025934490e-02 -6.6995023108838410e-04 1.5573280399831664e-02
152 -2.2485813582413714e-03 -3.2603835160875661e-04 1.8868331738479415e-02
1221 -1.3286771295438642e-02 7.0157639763084329e-03 1.8577438523329038e-02
1925 -8.6123778853729564e-03 2.7915365397436179e-02 -1.0052241510075378e-02
836 1.8056093007946163e-02 1.7703692481866585e-02 9.9971236729329196e-03
752 5.1899385018863032e-03 6.5975254071761963e-03 1.2134115621560918e-02
837 -3.4351505215762392e-02 -2.4711373231450146e-02 2.1187064032198395e-02
2006 -4.8103478442095551e-03 5.1320411248673954e-03 5.5962156299983910e-03
2380 8.9787291749917144e-04 -7.7132814493969222e-03 1.8764814067768628e-05
455 6.6618444026111624e-03 -5.6786854273200718e-03 -4.2942115243734457e-04
2786 1.0946896727044421e-03 -1.2326827222809868e-02 -1.7340543860331493e-02
944 1.7184965133353221e-04 4.4723754901469012e-03 7.6245962803795557e-04
2837 4.4947202661894938e-05 -9.8200702302338738e-03 1.4206901332651052e-02
2836 -1.2797256269262657e-03 1.2046349584583622e-03 -2.1388607647061129e-03
1714 6.3699746120849492e-03 -1.5091546397441897e-03 2.2053240011286478e-03
733 3.4742141570141593e-03 -1.9891489922339730e-03 -9.9962773626386466e-04
735 -1.0026951852091731e-02 -5.3151342667280155e-03 1.1811398944825606e-02
734 1.0559075200655030e-02 -1.4550960789426655e-03 2.3196767290405949e-03
943 1.3287590772626675e-03 8.8540534603490605e-04 3.6192198736075399e-03
1716 -1.0847641980815342e-02 5.4641602751474220e-04 5.9337536764034627e-04
2826 -1.2821172569441540e-02 -8.3145946005862299e-03 1.9536238948296012e-02
2838 -1.0407832979001788e-02 9.9785934730618007e-03 1.0633816100916363e-02
2785 9.5438591842109230e-04 2.2234271562371366e-05 1.6129044579420129e-03
2787 6.3377983019899725e-03 -6.9344766403226345e-04 5.0726246207001323e-03
1449 -8.6959939793515816e-03 -2.5970560290897878e-03 -9.0616385494517084e-03
1719 4.7418063555263752e-03 1.0386862220979690e-02 -4.8866192440696638e-03
1717 4.6858790497534078e-04 -3.6979239297345542e-03 3.7660031653811584e-03
454 5.1508758635606256e-04 -6.6541462857583659e-04 -3.7088396939224597e-03
2369 1.5640932197838311e-02 -1.9980096089622823e-03 1.1025127825918725e-02
1718 -2.5938481398644702e-04 -1.7368984691103394e-02 1.7785677726054543e-02
2382 9.9021687785170922e-03 -2.1628929014906183e-03 -4.1602516144204045e-03
1715 -1.3850846780360112e-02 -1.0833794414594040e-02 -1.4584055282526445e-02
1447 3.9365299035013382e-03 -3.6622040802392758e-03 -1.7510525590948920e-03
2381 -1.3655893649232320e-03 -2.7068737338434103e-03 -1.6643873293770233e-03
1564 -6.2413259038929221e-03 -1.8255348100914106e-04 9.3513949651222877e-04
1686 6.8457719734073240e-03 -5.8529981001242499e-03 -2.0398144769609970e-02
1684 3.8537994276621637e-03 -2.8397281560193794e-04 -1.0746210075527460e-02
1763 -1.0489374347608812e-02 6.7241240602897009e-03 -1.4909929635809097e-02
1566 -4.4547342395626430e-04 4.3106468779884064e-03 5.4688150260080700e-03
1565 -3.9858595521584375e-03 1.5626092042384193e-03 -7.1809379684206259e-03
1129 1.8518589062877015e-04 -7.4803882689172619e-03 1.3419750021311579e-03
1317 8.6756071638164511e-05 4.8346897699189321e-03 -1.7590495693128011e-03
2244 -2.5403471772215365e-02 -3.1542234034997146e-02 -3.1517818557953736e-03
2503 -6.4291367657885040e-03 -1.6023002247210437e-03 3.5672236661966615e-05
2504 -7.8929094369908446e-03 7.3497021470827466e-03 1.2591604237690590e-03
1748 -3.0159424072220774e-03 6.7812217286327327e-03 -1.7444289073159702e-02
1747 1.9181217839346373e-03 3.7994786418008432e-03 3.0515354137723902e-03
1518 8.1871885897709142e-03 1.3235981091163834e-02 3.9112146133564226e-03
2242 -7.0483957288656779e-04 -4.7826171697385546e-04 6.7392977365881663e-03
268 5.9887042841165160e-03 -2.2404060913632385e-03 -6.4890302840518201e-03
270 1.0033853504732111e-02 -9.0605438329505045e-03 -8.7727227303242648e-03
1316 -4.6385041635192508e-04 1.8876582415895352e-03 -9.8414807273044819e-04
269 8.3415084106473990e-03 -2.5667288958987518e-02 -2.1074491554030472e-02
1315 2.7695066872533191e-03 2.3907040494525371e-03 6.7055163657366273e-04
1131 1.8562152675114917e-03 -3.7311466309344721e-03 -3.1708086225373668e-02
2243 -2.6715306248849411e-02 5.1087646939293411e-03 1.0457863583639060e-02
104 1.1504493638171586e-02 -1.6200622827325400e-02 2.5066578451616209e-02
1764 6.0308302792440186e-04 1.1576927641679289e-02 -1.7487067108986988e-02
2505 -7.7623607704072365e-03 -9.7689047142453982e-04 -1.5264621877713702e-04
3097 4.5477029658428890e-03 5.5878477861812294e-03 -5.7217368084792226e-03
3098 2.2684152756979868e-03 6.2328541121572309e-03 3.9071847587045638e-03
3099 -2.4157440068715997e-03 4.3425943739798132e-03 -6.3373699068553701e-03
3100 6.1235487378475907e-03 2.4780605221555750e-04 4.3950801388857920e-05
3101 8.1088769681731678e-04 -6.5232082405483063e-04 -2.3473495710498635e-03
3103 -7.3399499757491186e-04 4.8764033312535459e-03 1.8098584867241199e-03
3102 -3.9011409395146515e-04 -4.4959455463081804e-03 -3.0148189253145297e-03
3104 1.9015422902789935e-03 2.6597807730743906e-03 1.9135511479514242e-03
3105 -2.7004377575005766e-03 -5.2647812133545776e-03 3.2623677345726285e-04
3106 -3.3719498033044398e-03 6.4777847239517834e-03 -1.1901451322331199e-03
3107 9.7774882253279455e-04 2.6638951678361320e-03 4.3708809583649574e-03
3108 1.1484991027155651e-03 4.6518273413215447e-03 2.2021426805404259e-03
424 -3.4146652533106637e-04 9.5760067914508248e-03 -8.7154728913097067e-03
426 -3.0615080779028527e-03 9.7076065677448430e-03 -9.9976864022378251e-03
2411 1.0636531848681801e-02 4.3843598834588781e-03 -3.7265872959795078e-03
425 3.3167781910089925e-04 7.8931608633831599e-03 -4.5727829885896867e-03
2410 6.3384837904491016e-04 5.9156631173673166e-04 -1.8426147743884629e-03
2939 3.1017598219611579e-03 -5.1221911371416729e-03 3.9557984510128234e-03
2757 6.1961251515888719e-03 -1.5510857317931209e-02 8.9857193693315129e-03
2476 -8.0491713287491099e-04 -3.1875398967592798e-03 -2.4335146850896781e-04
2478 1.4116422381063738e-02 -4.9607741446077392e-03 -1.5578249753772470e-02
673 -4.8205212169128544e-03 -7.5851603799626248e-04 2.9950973633678202e-03
958 -4.1910875679354084e-03 5.5759013250077866e-03 2.2239574190326709e-03
2113 8.7021530433735981e-04 -1.3905297610424079e-03 -1.6661040426163181e-03
1118 3.6145862197183125e-03 -1.4248768756712432e-02 -9.8982984878739633e-03
1119 -1.2671077681848270e-02 4.2375314118266718e-03 -9.4683689222566456e-03
1117 -3.0362635841200674e-03 -5.9492210604864468e-03 -4.0283313114695841e-03
675 -8.9195075566312759e-03 5.2334916808979949e-03 -9.4650631566487783e-03
804 2.5455748902789626e-03 1.4605268840336524e-02 4.3248401634359106e-03
802 6.2701494073454976e-03 -1.5881705010179852e-03 1.3958915658128491e-03
1202 -1.1539414943937138e-02 -2.6166608584874932e-03 -2.3603437910708889e-03
2412 -1.8872037225587078e-02 -7.0113162818317516e-03 -1.6221507259040133e-04
674 -1.0528377251863456e-02 1.1300502709644623e-02 2.2067096153035221e-02
2114 -1.4109684164042850e-02 8.1686812012799013e-03 5.9162728126889927e-03
2692 -7.4060120371133792e-03 -3.3135242897540363e-03 1.9845136652895988e-03
803 -7.3246381318504139e-03 -1.0604282728567829e-02 1.5622202186911755e-02
1203 3.4722281838131812e-03 4.3335683190050475e-03 1.7931572538286807e-02
2796 5.0608228249681931e-03 -5.6501638518519810e-03 -1.2426861355725472e-02
960 -9.5316640960741265e-03 3.9960100937174742e-03 -8.1327495553817062e-04
959 -4.7933715736659518e-03 4.3595945564681637e-03 1.2932648036615244e-02
530 7.9487664840029398e-04 -9.9523079011746181e-03 -1.0025244949899171e-02
1201 -2.4713423653983761e-03 1.3607085087874197e-03 -2.4907088169460515e-03
2477 -9.7829542552415952e-03 1.6524523587662571e-02 3.2434187606591079e-02
529 1.2363087916572892e-03 4.8929174546002195e-03 -6.6704829640277267e-03
2794 -9.3656578931198900e-03 7.7592692991450950e-03 -1.1766180443109506e-04
2693 -7.0172283528576202e-03 -5.3403090768004884e-03 3.0394520484972468e-03
2115 -2.3338826331768380e-03 2.2543595058844171e-04 -2.2722748848244786e-04
2802 7.2531600972674500e-03 1.9953711764050051e-02 1.4287016217480672e-02
1871 1.6582652466965168e-02 1.2983857667391352e-02 -8.1618707498617871e-03
2784 5.4615248572701574e-03 -1.3081944455347540e-03 -7.2385671243995423e-03
2639 -5.7680962187817318e-03 -1.0307175888991989e-02 -1.5527314208332142e-02
1872 3.1899772556720015e-03 6.9779967084376577e-03 1.5402153582604791e-02
296 -1.8481944411772974e-02 2.1359308803122357e-02 -3.0278711036896531e-02
1061 7.0304179252492715e-04 8.2724559141464336e-03 2.2116922750792412e-02
1870 3.9044295218101698e-03 5.8446179813219428e-03 4.6754179891151364e-03
2694 5.3625220843502518e-04 -2.0285546345722140e-02 5.2743417155585318e-03
295 9.6288825882775942e-05 -4.2298281873219311e-03 -1.8334650846321863e-03
420 2.2287498843266109e-02 2.7422226867096669e-03 3.9790625649182227e-03
2052 2.6449959063100499e-02 -2.1737141982465458e-02 -2.1305487511714925e-02
1705 -4.8664578612886604e-03 3.6233959104792495e-03 6.0261104246014377e-03
2051 -7.4766464337064928e-04 -1.4844356224741395e-02 7.7797885577695477e-03
1707 -1.4592773260995577e-03 -6.1219778921754915e-04 1.8719356568120461e-03
1706 9.9562936593164614e-04 3.3713691742977216e-03 1.6224811629072647e-02
418 -6.7418908019561659e-03 -5.8366375141737491e-03 -3.8077147206020149e-03
2050 1.1581701387374170e-03 -3.4543305374618869e-03 6.9527747166826881e-03
1060 1.5573821356232552e-03 -1.7453287781870107e-03 -2.7791116785514203e-03
419 4.4112927370644588e-03 -2.2610701509647262e-02 4.6755736430339418e-03
2638 -4.3209422871500957e-03 1.8666964346075409e-03 -1.6440720673949036e-03
677 -6.5032750765289945e-04 -1.1075345431433441e-02 -6.0725984417273919e-03
1062 2.8167898860200417e-03 -2.2364410079414696e-03 -3.4014959123055901e-03
2640 1.2724580344698925e-02 1.1963883233074813e-02 4.5217077966645623e-03
297 2.2859087706545499e-02 -9.1598801397562851e-03 7.7291641192117309e-03
2976 -2.8129986543548990e-02 1.5499764795484493e-03 -2.1308979600323057e-02
887 -5.9194780696000702e-03 7.2935722718776939e-03 -5.2247960000604346e-03
744 1.0067225408572655e-03 -8.8654603996353564e-03 1.8257235186772709e-02
2896 1.8695211029894218e-04 -2.0260311679918628e-03 1.6370590091219956e-03
2089 4.8923211364503179e-03 2.0126491960050807e-03 -9.8821581020344272e-04
552 -2.2479359349851223e-03 -2.1829818693995646e-03 5.1375221899615763e-03
2091 8.5145735081868928e-03 -1.2416334119313786e-02 -6.4114582488105244e-04
470 3.6499333034363660e-03 -1.1303471536093110e-02 2.4235833066393654e-03
2448 -1.1781302459174713e-02 -6.9197380071329201e-03 5.9998542942610615e-03
2446 1.0168764391479666e-03 -1.5827915339733933e-03 -1.2003821937752435e-03
2090 -8.9423327094093289e-03 -1.4613610930384482e-02 8.4485823146390887e-03
678 3.1478614103926080e-03 2.2768708179047033e-02 -7.4463640808312397e-03
2684 -3.6278317580145545e-03 -2.5090194036132035e-02 8.6828296786189149e-04
2237 5.8795562671312591e-03 9.0927122742143381e-03 1.1054048749364696e-02
2683 -3.9841937926201306e-03 -3.4899449152751171e-04 -2.8964131288464895e-03
1172 -2.0555689218756598e-02 -8.9770098078163409e-03 2.0191154907723242e-05
676 1.4615043890370007e-03 5.8901059726656334e-03 -4.5910058656478082e-03
551 -3.4161714272811913e-03 -9.4827729967574895e-03 -9.5217911544277292e-03
2897 -7.8950732460123432e-03 4.2843304118940460e-03 1.1208106333288306e-03
2509 1.0381691775457409e-03 5.5908009224390851e-03 7.1616334801790481e-03
469 3.9749808134647583e-06 -1.0356190420892897e-03 1.4731032834945450e-03
2898 1.0089455194513965e-02 -1.5317883049963611e-02 8.6229479405621166e-03
2685 2.7223239570847223e-02 3.0150269675439426e-03 -8.0345036180173770e-03
1171 7.4146326418276284e-04 1.0123648285777207e-03 4.0717931120250340e-03
2800 -5.4421766314696690e-03 4.9000295541924985e-03 -2.3225613690647383e-03
550 -4.2719123394962663e-03 -5.3726734033083612e-03 7.3892089720180049e-04
471 -1.0975643032737252e-02 -6.3677097050971083e-04 4.8912259551731228e-03
2801 -9.6609442310279896e-03 -1.1399631154447630e-02 -4.5525505654672215e-03
2198 1.0604731250843666e-02 -9.6226656479609842e-03 -9.1132320426595970e-03
2511 -1.6276577976611830e-02 3.5809307820639869e-03 6.6321196303631572e-03
2447 -9.7832894214989006e-03 4.6614604088250720e-03 -5.2627201801874555e-03
612 2.6658053021985369e-02 -3.1003548242533583e-03 1.9842446216104654e-03
1173 -1.3444872228641493e-02 9.8429019824038781e-03 -4.0841777737743671e-03
2510 -7.0981665119469956e-03 1.2478012060353566e-02 3.1095475469314470e-03
1430 -5.7339561988201029e-03 -1.4652427235787352e-02 -2.9243719151802049e-03
1429 3.9004104203656637e-03 -4.6148612170547994e-04 -2.9817698861333360e-03
1431 5.4195324503564634e-03 2.3064798952365774e-02 9.4843365178669183e-04
3109 5.7236562817983274e-03 1.9402346117775226e-03 6.6663733966772680e-03
3113 2.1853890621199093e-03 -1.9680161305434120e-03 2.6089255965153316e-04
3110 6.0834834255833713e-03 -6.1968676705989869e-03 -5.6633174278024499e-03
3111 -2.9379373526580250e-03 4.6776999870371920e-03 -3.1321002478521967e-03
3112 2.2405844375837734e-03 5.3330785779505336e-03 -5.9177701393504740e-03
3115 3.2157949607256328e-03 2.4824758655379651e-03 -3.5287182381047054e-03
3117 6.2166302662555930e-03 4.0457649709498460e-03 -6.4900859569865122e-03
3114 5.4966777370072583e-03 1.9687610593508470e-03 5.9185965201209896e-03
3116 5.6123172830821596e-03 -1.9218342054396220e-03 2.7981935567886313e-03
3118 4.4772747121757297e-04 4.8203177587910805e-03 6.2245440028235524e-03
3119 -3.4478510122572890e-03 -2.0210780928959621e-03 2.1387508329358644e-03
3120 -5.9489397950133584e-03 5.6379299280738078e-03 -4.3267951923617234e-03
1275 -1.3483901339174327e-02 7.5698323939507161e-03 -4.4536123271164355e-03
2136 5.9789467730086039e-03 9.2058501805396559e-03 2.1696365014018629e-02
2134 3.8393437378609886e-04 -6.3742376713013978e-03 8.4152934789819157e-03
1406 -9.9579483694713748e-03 -5.9713604401286612e-03 1.4374380970953678e-02
1537 5.1927403546033323e-03 1.3430619012397699e-03 -1.4958088420411297e-03
1121 -1.2885946172754225e-02 -4.3487962121912626e-04 1.8319041326781339e-02
1120 3.2085337217855224e-03 -8.0398534519750698e-03 -1.2650808749609780e-03
1122 -4.4126952590281612e-03 -1.4864097671970510e-02 -1.8517984867560403e-02
815 9.8037065857581422e-03 -1.1614419554000395e-02 -4.0233236411812640e-03
814 -1.7773664247952296e-03 1.8592118824628410e-03 3.2326339480313908e-03
2152 -5.5328083152375715e-04 7.8206523613973504e-03 -1.2559460341376718e-03
930 9.3738528955370215e-03 -1.7074144402002122e-02 -4.5169164042013557e-03
956 1.3698270694408092e-02 5.6808275562101581e-03 -7.4478766949284559e-03
2154 1.7579603144862229e-02 -2.4701441375245569e-03 1.6804788168638167e-02
1407 7.8063536902220707e-03 -1.2160120253925533e-02 1.4235020492383650e-03
1500 -2.2087039868519856e-02 -1.4170812506087314e-02 -7.3605672525449443e-03
928 7.6936628637885754e-04 -5.8956203123572467e-03 -8.5403058504630836e-04
929 -1.2056684524741722e-02 -6.1530394543053476e-03 -9.8134349785890165e-03
2856 -7.1726789206395369e-03 -1.6923351049856863e-03 -5.6609878625449020e-03
816 1.8045507646291373e-02 -5.9696380931870494e-03 1.0635641389196171e-02
2135 -1.5808758805444828e-02 4.7970294788659074e-03 1.9235902302637432e-03
1405 1.0015001168545297e-03 -2.3109246931423241e-03 2.2338406002659892e-03
957 1.3226220418219506e-02 -1.1266480201781642e-02 1.4364807601235589e-02
2153 -5.1449638373251656e-03 4.7069165383217103e-03 -6.3277949660339701e-03
2854 9.2650818760754239e-04 -1.5726786856447381e-03 6.4812299188028773e-03
1539 -1.8097822218271181e-03 6.6409358245329234e-04 -2.8029608999152649e-03
2951 -6.9283983402620083e-03 5.3389923735665630e-03 -4.7694208182240266e-03
2542 1.1584843139411695e-03 1.7779333107316739e-03 -9.0473799134023556e-04
1538 1.1454570070503340e-02 1.3911575910522044e-03 -1.2050383473703687e-03
2543 -8.9002179295885140e-03 -2.6059057193037923e-02 4.9774816077520012e-03
538 1.1588414087968157e-03 1.3875141502889951e-03 4.3437683688258042e-04
540 -2.7375090574865865e-04 8.2820884400804842e-03 1.8735777311093041e-03
955 1.3554860166240884e-04 1.5572214645270563e-03 -3.8024650053715935e-03
539 -4.3610236419890655e-03 1.3637106688282143e-03 -3.8076054587023599e-03
1498 1.8070555621080011e-03 -2.5697092291726074e-03 -1.1054588095984991e-03
41 -5.0399737726000895e-03 -8.9357506821843308e-03 2.2359477659066263e-02
1736 -4.4772091547801793e-03 1.3030254285215728e-02 -1.3304579847282944e-02
1499 -8.0901104625726930e-03 2.5744496115049885e-03 3.1580043903985901e-05
1519 -7.8554972229387485e-04 2.8101228045260850e-03 5.5239336722333384e-03
940 2.2232943454798199e-03 -5.8098515212187882e-03 -1.8957689506192250e-04
942 1.0106561616495990e-02 -5.6252049927525260e-03 -7.2959873405947469e-04
1609 -7.4252315679723484e-04 -6.1971770532671709e-03 1.3893456905620946e-03
1611 3.2539409502472232e-03 1.1834165797853706e-02 -7.2706953206181290e-03
888 -4.3122527902809326e-03 1.6656251987338549e-03 1.3750309101523976e-03
1610 -2.6218793381273665e-03 -1.6378445972017468e-02 3.8042545997147106e-03
1672 4.8240014987381268e-03 1.2524138561604281e-03 6.1770757609839614e-03
886 -2.2027186198545676e-03 -3.0837695650520122e-03 9.2072254470764163e-04
615 1.6907350357458311e-02 -2.8944789435325679e-03 1.5920300238687828e-02
613 2.9269085464367454e-03 -5.2626909853065304e-03 2.7009984716233767e-03
614 -3.8095102832401357e-03 -8.9831244691705014e-03 7.5383801900600674e-03
1521 -3.4742539807867895e-03 5.5077949061122095e-03 1.0527344950215248e-02
1673 1.2144676372322225e-02 -1.0322333409467819e-02 -5.4678010360422662e-04
941 -3.0434027729033448e-03 -1.1235281378245433e-02 -1.2482344320062923e-02
2977 8.6515829242228576e-03 4.7434312643807779e-03 7.6525197412624960e-05
393 1.0869372752731945e-02 -5.2968898378822600e-03 -4.7758742389189864e-03
2978 9.2211452111047119e-03 3.1241335195842410e-02 -1.9267179788136669e-02
1674 1.4420576326331343e-04 7.2094400546749652e-03 7.7787017662143123e-03
2975 -2.9242720970538492e-03 2.1711402881852055e-03 2.0470566068508611e-02
681 -5.1381425524111325e-03 2.4455247105248257e-03 1.4627053609038655e-03
2443 1.6638473476047984e-03 9.4157732851416897e-04 6.4593378405042309e-05
2974 5.1840309379088435e-03 1.2131964475482239e-03 3.1377627644244778e-03
2995 -9.9830942223906789e-04 -4.2159696617693832e-03 -3.4310279592946807e-03
2306 -1.5527710752628652e-02 -2.8476560798010999e-02 1.1023269824127432e-02
1287 -5.3652832713862509e-04 -1.4799710329705069e-02 -5.3383484868259499e-03
2997 1.4567208750051500e-02 3.3433603739626383e-03 7.1071353401867311e-04
1000 1.9905544681951648e-03 7.5932977897973731e-03 1.7711021645691678e-03
2163 3.0766585893904535e-03 1.2722454319568690e-02 1.6146812078656487e-03
354 -3.4458455801324472e-03 -3.4666462670356149e-03 3.3216955395929631e-03
2161 1.1429726371356985e-03 4.7093651751241600e-03 -3.1685811594103267e-03
353 2.8127487256151360e-03 -2.1209178969547088e-03 4.0916729607058987e-03
627 -3.6883915923739668e-03 -1.2280016726756991e-02 -8.9457394384033512e-03
352 4.2695392855695551e-03 -1.1099081443712384e-03 4.1998764227382272e-03
1159 -1.5614340127649972e-03 -3.0629807410690940e-04 1.5972633853311633e-03
625 8.0176772021073393e-04 3.0789299673547290e-04 -4.3316965336524717e-04
2451 -3.9728922412313695e-03 4.9401649857503966e-03 -6.6616158455170696e-03
2450 -3.3157226118075479e-03 8.1342809900939519e-03 -5.5783704152102768e-03
1160 1.2410973105274939e-02 3.8243672481131012e-03 1.1323086436501128e-02
2449 3.4636836947893085e-03 2.3845863572976200e-03 -4.6217965148617974e-03
2307 -1.3684296406333224e-02 1.9869993237878864e-03 3.8626624109664763e-03
167 1.0405594246992854e-02 -1.0182955387198720e-02 1.0603939942836187e-03
2305 -1.4180609086505921e-03 -2.4913041701927290e-03 -8.7895377611604698e-03
1161 -7.4633779808280917e-03 -2.0954069536390381e-03 -4.5513726854214034e-04
2996 5.2103752035255555e-03 8.2984196727813146e-03 4.5646876703961791e-03
1002 1.9784445896997836e-03 6.0718296492332565e-03 9.8610010954100040e-03
626 1.2371972534744277e-02 -7.0130602781223773e-03 9.1345313811958193e-03
2857 2.1505994803180427e-03 6.1805657547884022e-04 9.5896390912631282e-04
2162 2.0196203387165334e-02 1.6659120976299294e-02 1.6824174024450873e-02
2212 2.9912974358461066e-03 7.0237726275634250e-03 5.1014185611201958e-04
2858 9.5524941937937414e-03 1.6207033758203959e-03 7.2731061545645739e-04
166 3.4473447289316947e-05 -5.6440578755681380e-03 -8.1108271086218296e-03
253 -5.1591181751297951e-03 -3.5597316769218918e-03 1.1629527278149972e-03
168 -4.2363164646887445e-03 -4.0415006263637750e-03 -1.2433594424705494e-02
255 -8.0484160144468787e-03 1.3323070231031405e-02 -1.5705240799850775e-02
3121 -2.3131599256645038e-03 -5.5526294834072551e-03 4.3941561821736431e-03
3122 5.5140285441661876e-03 1.3324399861505381e-04 -4.6333590966869277e-03
3123 -6.0097121643922424e-03 -2.0250773798856847e-03 1.6160373468549914e-03
3125 5.1637691034835355e-03 -4.3278553476052261e-03 -5.7188944129844960e-03
3127 -1.1162861820901700e-03 -4.3957910080493733e-03 -3.8872875442628048e-04
3124 -1.0171715206858957e-03 -5.9082505412514866e-03 3.1909813315792791e-03
3126 -3.3140860045877277e-03 5.2724266829050235e-03 1.7826952637495436e-03
3129 5.5989566944180721e-03 2.8398214789950748e-04 -5.5227961802618592e-03
3130 -2.1402543748132354e-03 5.9816156354505724e-03 -3.6411467978470211e-03
3131 -3.2233431105724744e-03 -3.5577214571922296e-03 -5.7937057937063258e-04
3128 -1.6643853170776469e-03 7.1651497422519825e-04 -5.5136056954900583e-03
3132 -4.5029955475049954e-03 4.5833027504591046e-03 -2.3658452011520391e-03
1274 -1.4338523353838904e-04 -1.0356979715161559e-02 -1.4408022732731214e-02
1190 2.4132043438495009e-03 1.1185047527862181e-02 -1.6653165138087768e-02
322 1.2282872136549188e-03 -5.8811537793368139e-03 2.7695593373022066e-03
1273 1.1170945387622970e-03 3.2395396903868315e-03 9.1076802969228406e-04
671 1.5247792419649084e-02 -1.8494634163121219e-03 -2.9693118884621997e-03
2855 -6.5282350658814698e-03 -8.8882837609348918e-03 7.8246859375000948e-04
2385 -4.4848802561319916e-03 -1.5674281522320692e-02 1.0640333419394259e-02
1426 7.1573030981844025e-04 3.3284548825016319e-04 -6.4766598400710961e-03
324 8.3256926322619034e-03 -9.0963367708585610e-03 1.9364203312898870e-02
382 -2.5843363714938123e-03 5.6367300626574499e-03 9.0467410650794597e-04
1402 8.9795447086416756e-03 -1.8421829031995574e-03 -6.1271578982987907e-03
2544 2.3754644346057701e-04 1.7049825670837900e-02 2.2438490001032801e-02
2383 2.7551177569358513e-05 4.6062516184845522e-03 1.5437615200404196e-03
1403 1.6033686027343182e-02 -2.7483777889228504e-02 -4.7828634688902418e-03
1821 -3.3229612061061800e-03 1.0521655619437116e-02 -9.0389333193710878e-04
927 -5.6697231638531942e-04 3.2940633191509038e-04 -1.6249801522960704e-02
1427 4.1346515405113532e-03 -9.0381507110579174e-03 -5.6142790584873703e-04
1189 -3.3648301324164575e-05 3.3234508894007513e-03 -3.4563672760785230e-03
1819 3.8462491072151837e-03 2.6163119698982213e-03 -8.6455156299750991e-04
380 -7.0594966513132262e-04 1.4770382331135201e-02 -7.5428797861128065e-03
1404 -8.6993276843029457e-05 8.6655509331499819e-03 -2.5828385782030644e-02
2210 1.1212576235664733e-02 -2.7631531682030121e-02 -1.2637554292310803e-02
323 -1.1005291580061617e-02 -3.1326637932432080e-03 -2.6003365444946153e-02
1347 -5.5087614415648047e-03 5.2856266614728486e-03 -3.3094879622806122e-03
383 -3.7667290705564304e-03 5.1417255112343324e-03 -2.2820431244954462e-02
1428 -2.5787646530007952e-02 2.2425082610657510e-02 -2.1512255510831343e-02
672 -1.1594052861422168e-02 4.5598577975451745e-03 3.6284962809070898e-02
1345 -3.0506969140129299e-03 4.2197939264872310e-03 -2.2955361412114539e-03
1191 -1.4376228784877877e-03 -1.1043501621512478e-02 -2.9394101468116203e-04
384 -5.1835703659916608e-03 1.5037366839197282e-04 -7.2936716007558407e-03
1346 2.9478426196224527e-03 -4.2832300258689726e-03 4.2152289789466899e-03
670 -2.4668843464200913e-03 1.4003428426829527e-03 1.1116720908441366e-03
2209 -3.7617886783647804e-04 5.1823124879937024e-03 -1.0157239713005004e-03
937 8.1470547949906934e-04 1.8989591564845549e-03 5.2273742196466699e-04
87 6.9315890414924156e-03 9.5109491888067748e-04 1.1901809241199239e-02
85 -3.3360354825580710e-04 1.5850180120691368e-03 3.2102444971283443e-03
2591 -2.3903600930673644e-03 1.3032172855326846e-02 -1.1224979077182983e-02
86 8.5144439364940000e-04 6.2306898029013107e-03 2.5650690483526996e-03
2670 -6.1744011163702237e-03 -1.3742438653292112e-02 -6.6031924555070599e-03
1785 1.9622850910507687e-03 -3.5445893077285201e-03 6.9572057426660052e-03
1820 -8.3907291343760966e-03 -1.6237283094012980e-02 -2.0402850184463080e-02
411 -3.5467706386432311e-02 -1.0576693474985982e-05 6.2551157006280143e-03
2592 -1.1971417174012145e-02 1.0177145657881464e-03 8.1288069656577210e-03
1745 4.3175454648352622e-03 4.1718780035576936e-03 7.8813201109034902e-03
1938 -9.6871109582664129e-03 -8.1292670642791973e-03 -9.5507227447479327e-05
1937 -2.1719344317885539e-02 -4.3360776162790606e-04 -4.6980485969821519e-03
1936 -3.3832768025610282e-03 -3.6251781232832267e-03 -2.2400955482035187e-03
2590 5.5510170080549378e-05 -5.8836782983682969e-04 -6.3770166715790614e-04
2445 -1.8374507863821783e-02 -1.1589654442696089e-02 -3.0005425163037273e-03
409 -6.0020493563292142e-03 1.0258238516061835e-03 -4.2085322083885345e-04
1783 -5.4671526126137389e-04 1.9660533470538134e-03 2.3503778060803030e-03
410 1.8773627686604271e-02 2.4051995653854900e-02 1.1448695296108853e-02
854 -5.6725956998219303e-03 6.5282024153186236e-03 -1.1549211003677354e-02
2481 -3.8605025976916937e-02 -5.5095629034259460e-03 -4.6451567022909503e-03
2479 3.4743187534868798e-03 5.8837693735003173e-04 -1.2572615488764779e-03
2979 1.4915768818230422e-03 -1.2660191791311925e-03 1.0565080094654719e-02
850 -8.8060600566029670e-04 -4.5481074044009598e-03 1.2673453003517695e-03
2444 -1.3461796109830240e-02 1.1589800227013430e-03 3.7105977341162860e-04
14 -2.2502781018979403e-03 3.0223834628298149e-03 2.5704292169526806e-03
116 -3.6355807889480182e-04 -6.6936876707111648e-03 1.6505400794840627e-02
2668 6.8422364577304048e-04 -6.2825203815242486e-03 -1.6354285706507920e-03
852 -9.3422955984241349e-04 -7.2451824504916182e-03 -2.0479311365842337e-03
1038 -4.3291656648442711e-03 -3.6228273180923774e-03 -6.7285020513330003e-03
15 -6.4236153509198205e-04 2.8221991678338667e-03 3.6470694258249939e-03
422 1.6225883974665751e-02 1.0324167401392432e-02 9.9153647163905626e-04
851 -1.9056407741934809e-03 8.3896421305709838e-03 7.3953239556388143e-03
1650 2.3732196099458507e-04 1.2949887060188386e-02 6.9084559635841300e-03
2761 1.2090647489540634e-03 4.0021150902707636e-03 6.8906789906754212e-04
1648 -8.2174079538952394e-04 2.5957601485516305e-03 -5.5440622509656682e-03
2430 1.0918206158237675e-03 6.4279278835414309e-03 -4.9902271321684913e-03
2885 1.3491533071584131e-02 7.7528206199118920e-06 3.0219451894028604e-03
1188 8.3188162472056463e-03 1.1680972980479642e-03 2.7602282358975765e-02
135 1.2068935656564096e-03 -6.8244863720866031e-03 -1.0360275678510706e-02
421 2.9150501476444116e-03 1.1662210668870856e-03 4.0943793420933541e-03
13 -1.7858889780772620e-04 5.7715502664025347e-04 2.8170693309847315e-03
134 -1.4333003332606484e-02 -1.3101785523683067e-02 3.2750879627466582e-02
423 4.9982381244887703e-03 -1.0510791630474730e-02 8.6158333585522780e-03
117 -2.3616243580128513e-02 -1.1011711565350250e-02 -2.4473649752907809e-02
133 -3.5786026107285647e-04 -4.2083949230006957e-03 -1.0857920844402107e-02
115 -4.4928482976064835e-03 -1.3377948635950223e-04 -3.2219597800360123e-03
2762 3.0483797856912714e-02 1.5159680649102791e-02 -3.7494612495484005e-02
462 -1.6736195439507715e-03 -3.2852910661746934e-03 9.5529372725531945e-03
2763 1.7677964420677549e-02 2.3662955014682255e-02 -1.7429317452517194e-03
1186 -6.8925338636023851e-03 -1.2968665419991578e-03 2.9343344187360947e-03
2428 6.3557150489257678e-04 -5.5404263766805871e-03 2.4682487077360596e-03
2884 9.7001680947375349e-06 -1.2966148536813038e-03 -1.5462089153174517e-03
254 -1.6592767093962745e-02 8.5002085172388182e-03 -8.9601035168496365e-03
361 -2.7488712117257159e-03 -3.0103063260193414e-04 -4.3604897753928640e-03
2829 -5.8642978210803869e-03 1.2222866487387359e-02 -1.1973289719307203e-03
1898 -4.7762510698403007e-03 9.1370950947304592e-03 9.8350452091053205e-03
1899 -2.2103559381914440e-03 8.5882181745293492e-03 -3.6116249355321161e-03
2874 -9.2583484728368578e-03 1.5564688385306820e-03 -3.0778823345574825e-04
1897 -6.9115237310494121e-03 4.5146945737522572e-03 2.8337452700287476e-03
363 -6.5473595403201532e-03 5.8365325144441602e-03 -4.8633902807262387e-03
2872 -8.2138397265022773e-03 2.8189031144129802e-03 -2.6396479751573932e-04
362 -1.8452699573321262e-03 -6.8082658047954438e-03 -1.0399813979479654e-02
3133 -4.4569756503172932e-03 4.3974005619421015e-03 -5.5773495373445852e-03
3134 1.3490538484863049e-03 6.9431023033562282e-04 -5.2262397265052385e-03
3135 -6.5749967617895026e-03 -5.6369657280291715e-03 8.5291536575571238e-04
3136 4.9831797610172821e-03 1.7216803508989171e-03 1.5565730705950130e-03
3137 -3.3718369248909272e-05 -3.6116053978589384e-03 8.2215875789554127e-04
3139 -4.5052459932807832e-04 -6.0771045680979938e-03 6.3960578005849839e-03
3138 -5.0740261233869696e-03 -2.2306218599922770e-03 1.7430530154054511e-03
3140 -1.9661394842678051e-03 -2.1747487760297468e-03 -6.2429267190956842e-03
3141 6.1295952002890829e-03 -4.8385844139655076e-03 5.5510725473258073e-04
3142 1.7199790597867161e-03 5.6798410082452505e-03 6.4623785670635198e-03
3143 5.5781537472869812e-03 -2.5459749433455730e-03 -2.9479646580398400e-03
3144 2.4381855248811449e-03 5.0880658652208109e-03 -2.2003106658005055e-03
522 1.5449411471831976e-02 1.4226557818872951e-02 1.5342406737841017e-02
2936 -2.7766355913680412e-02 3.5756321454681585e-02 5.4836441607354043e-03
2935 -3.9999529292702200e-03 -1.9468974608471740e-03 5.5664008969350939e-03
2937 -9.0278157310790391e-03 -5.0179316097425982e-03 1.4964136274935650e-02
798 -1.1272124055067180e-02 6.5388482927988744e-03 -1.0517598762906561e-03
1466 -5.3199522408652715e-03 7.5067768133714298e-03 7.4671402956543636e-03
1467 5.1738799064889344e-04 -5.9179033724702417e-03 8.3759027339549881e-03
797 1.3081949199791212e-02 3.0416415990412362e-03 -8.0755606616735162e-04
1465 -1.7997092795925056e-03 -2.6948759203710574e-03 1.8875266654311039e-03
2507 1.1409592795439497e-02 -2.8424178598684100e-02 -4.5253056498646338e-03
2144 1.2896361296137519e-02 -7.2597373344502796e-03 -9.1021115728073896e-03
796 -3.2981162048099639e-04 -4.4645319144430940e-03 -1.1081040099377136e-03
2506 6.2240139566230816e-03 -6.3190271645909672e-03 -1.3074506196385034e-03
2394 8.7217221365187350e-03 -2.2223916955315018e-02 -1.8407493920659605e-02
1662 -1.3589300288916221e-02 7.1973402200747223e-03 -1.7904393766812938e-03
561 -2.3362056616298803e-03 7.6240310475207112e-03 1.1070116117665727e-02
77 2.2722716294388715e-02 7.0968234194287755e-04 -1.5618208494394390e-02
560 -1.6151133650473895e-02 -1.3723520525256962e-04 -4.9835922765433111e-03
488 1.4401684030023301e-02 -1.3041504772321532e-02 3.4684047053233167e-03
2145 4.6503920387091771e-03 3.9939186373474846e-03 1.1134858188524041e-02
559 -4.3943843338745681e-03 -1.9932814377659892e-03 3.1932274318674844e-03
2143 1.1457766464864865e-02 5.7240530641289994e-04 -5.2132060217217142e-04
1661 -5.7025009707485528e-03 -2.8965902242204210e-03 -3.6109600888006022e-03
998 -2.0356680368569724e-03 1.2620054312757704e-03 8.6776581632150379e-06
2906 4.4007202558735883e-03 -4.2649637243666952e-03 -6.8263250710111625e-03
1904 4.4189771388423614e-03 7.1295620096429929e-03 4.8055147694434121e-03
1660 -6.4746187560769195e-03 3.8633856461075694e-03 1.1040150265314208e-03
997 3.4091168948853019e-03 3.4693002385008578e-03 -1.3784309186315563e-04
912 2.7702320646144415e-03 2.9361167299966754e-03 5.1541242561764207e-03
2384 -1.4121270148092458e-04 -4.2441176547663891e-03 -1.4544178677581678e-02
2231 5.6865386222916866e-03 1.5825164761269106e-02 -6.2995888992951575e-03
76 1.0968103022485614e-03 -6.9248716494522454e-03 -1.9159036936053418e-03
1905 2.6133439257738770e-03 4.9198053816773045e-03 4.8481685626966418e-03
317 1.5848405653309710e-03 -1.7717750407952041e-02 8.4334269896564422e-04
78 -2.3325636551910063e-02 -1.7249224945991230e-02 -5.3125789317739341e-04
630 4.9123579037759239e-03 4.4927726092297438e-03 -9.1202504559117267e-03
628 -3.7124779648432880e-04 5.3019173828603178e-03 -3.5842883145181747e-03
1784 4.4699878677613896e-03 6.7761704471591406e-04 -8.6636840377299820e-03
586 9.4500021550617212e-03 5.6576655037435478e-03 -3.3282323064420887e-03
588 2.0663785667391497e-02 -1.5241756267858633e-02 -1.7997832322439986e-02
641 1.7164163589370833e-02 9.3726845438746476e-03 -3.6964285677496224e-03
2137 -1.9932755893091081e-03 -2.0791841286467677e-03 3.2815496573269905e-03
74 6.2364325940499352e-03 -8.5949711093869022e-03 5.6694951879539554e-03
1099 5.0432462071438510e-03 1.8056219917545187e-03 4.2532284307804837e-03
629 -7.6578196405477370e-03 6.7375420636103635e-03 4.7690800528196100e-03
318 -1.2053851792349501e-02 2.4633866502234335e-02 1.2786279997036576e-02
640 -9.0795413079158994e-03 2.6314754499571860e-03 -3.1262744911987185e-03
1101 8.4135331168453242e-03 -5.1863959595417003e-03 8.4374257176489300e-03
316 -1.6929786883673463e-03 -1.1384620323907448e-02 3.5828801649785877e-03
587 2.3944517384684838e-02 -3.4550526917461683e-03 -2.1904836240971928e-03
2232 9.5292961106631518e-05 9.8750781291481460e-03 1.8795953581857204e-03
2345 5.9852604360011675e-03 -9.1204760591730039e-03 5.4268004457133662e-03
2346 -2.0774981368174403e-03 -7.4119519006438407e-03 8.4766429025977881e-04
2230 5.8654765637484885e-03 5.3369474964419768e-03 5.5060117780032943e-04
2344 -6.1842502920026257e-03 1.1633502765038045e-03 1.1626592687841481e-04
855 -2.1628685173315956e-03 -1.0088855851004759e-02 4.2807755312432774e-03
989 2.0274158964180469e-03 2.4295640613851894e-03 1.4728933706725290e-03
853 2.3091690775116107e-03 -1.8852368801261202e-03 1.1178378833751081e-03
73 1.9812013037105326e-03 5.7274997446346814e-04 -7.8583612669183469e-04
1903 -1.1213198478249101e-03 -6.5675188880810033e-03 -3.9600423115292802e-03
1683 -1.0456250537666521e-02 2.7133835969856839e-02 1.7221103662647692e-02
75 3.0923644602631069e-03 -3.6513448355751685e-03 5.3871396467408501e-03
1630 2.5735486044859443e-04 -2.8970602872111606e-03 1.8539470939050826e-03
1390 -7.2079950982752656e-03 2.0539411964681746e-04 1.1798703608971650e-03
1458 2.5071491061202391e-03 -1.3465178580144026e-02 4.7476355383009438e-03
1392 1.8503204138147600e-02 -5.2653849544986352e-03 -1.9088188146580635e-03
1916 8.1391442134128543e-03 8.8168354314939763e-03 1.2463341670366546e-02
1592 -3.0559108240317046e-02 -3.6973654056346526e-02 1.3783377964020637e-02
1187 -3.6001418736660851e-03 1.0585844154776867e-02 1.0733675314956339e-03
1591 -1.1022629170256446e-03 -5.7383853601042827e-03 -2.8552280410255315e-03
2472 1.9324060314128491e-02 1.4665147092094143e-02 -8.5271265490667342e-03
2556 -9.5355690888296006e-03 7.9706476285739177e-03 -6.8751210653831100e-03
1456 -2.4239801196523688e-03 5.8798925690056844e-04 7.8898336700886640e-03
1036 -2.8500327832032594e-03 6.8981209192726491e-05 4.7690237052036149e-04
2138 -1.0170801905839445e-02 -1.3198596558132450e-02 9.7706497087325286e-03
2139 -1.3167306256207806e-03 -4.4948040740793900e-03 -8.2472702908332751e-03
2736 8.9964557551350070e-03 -1.0043473646419585e-02 -4.8190599906233712e-03
461 5.6075058640412904e-03 3.0431101899654465e-03 8.8582156654697757e-03
2192 5.7970001633353202e-03 7.9064899940735848e-03 -1.7610475389673676e-02
1312 3.4930596753954225e-03 2.8189461079246394e-03 -4.4481675611152830e-03
2555 -4.3632278468395220e-03 5.7489346969254174e-03 7.4283028247548117e-03
2193 7.8048540551101300e-03 -1.2072747803586173e-02 -4.0823726494587939e-03
1457 -4.9638894259670281e-03 2.6001704336514147e-02 8.9259324099812240e-04
1037 -2.8628116248305137e-04 5.0459923929403730e-03 -6.1450619569631644e-03
2554 7.7335789815677206e-04 -1.5491967032876042e-03 -7.8245322579304534e-03
2191 5.9360949007352809e-03 1.8909223046877745e-03 -3.0036857213610684e-03
1314 -1.1598765577669898e-02 2.0601117463643782e-03 -1.1786684282129430e-02
1313 3.2260856672925919e-03 1.5945950062466366e-02 7.3590385262838726e-04
2886 1.8932712509464267e-02 2.2229603939342420e-03 -1.7713326356959526e-02
1391 4.9388317366272916e-03 -8.9366357823367527e-03 1.0049460441798086e-02
1631 -8.6016646745820935e-03 3.9283099397760491e-03 6.2770240109121947e-03
460 -1.5110097974077150e-03 5.7267745517328465e-04 2.1237768028282791e-03
1593 -9.2521189174926688e-03 -1.6121315972780985e-02 4.7411342056633875e-03
2873 -8.0339947524123122e-03 1.6393805988439987e-03 -4.2411641358074516e-03
2739 2.0270256389564978e-02 1.0634116369825598e-02 -3.5956545345418520e-03
1883 1.0468518740880523e-02 -3.9823182812109845e-03 6.7311660716279564e-03
2737 1.4101815065642852e-03 -4.2178308576330028e-04 4.0810680507099633e-03
2738 -1.2676406694055242e-02 8.0194322520638853e-03 1.8752218130641259e-02
1882 1.1090990144440053e-03 -5.0279223431018184e-03 6.7054742131207974e-03
2470 3.1648845628136687e-03 6.5436540145706193e-03 3.1841621461498734e-03
1884 5.7400545177896303e-03 -1.4300387164666944e-02 1.4975515022592147e-02
3145 3.2405572748350755e-03 5.1642108117131505e-03 -2.9436116127915584e-03
3146 -4.4321465274880243e-03 -5.1366709277815090e-03 5.9514514037804552e-03
3147 -4.8159201562532365e-03 6.9167599406622007e-04 3.8547936537891357e-03
3148 -2.6014453779173545e-03 4.5062292770490448e-03 -3.8896355702569808e-03
3149 -4.5733763226211768e-03 -4.5042527037768175e-03 4.0920519897149421e-03
3151 -1.9403980584308371e-03 3.6242563846531090e-03 5.3825380543675617e-03
3150 -3.2601098944720123e-03 5.4199892750999073e-03 8.7631253597536540e-04
3152 -2.7229406809554215e-03 3.3497413921878098e-03 -6.5530367465410338e-03
3153 -3.8120059585760933e-03 7.1949954751150615e-05 5.6131717057111034e-03
3154 5.3252663387024172e-03 2.2080771982590668e-03 -1.7055504113391962e-04
3155 -2.9504482730420755e-03 -5.5134300571217949e-03 -3.7141157400363460e-03
3156 -2.4555802029915031e-03 1.7486756887035197e-03 1.7527554912489009e-03
31 -4.0226469075036455e-03 6.7625291820674659e-03 -7.1400570948920005e-03
33 -5.1840144771676767e-03 1.3990732511549605e-02 -9.3539563305641039e-03
32 3.6904032016779101e-03 1.8072180097076038e-02 2.7188266065517781e-02
521 3.0288940226913131e-03 8.4184319866716026e-03 9.1532719067258825e-04
243 1.9300742293481552e-03 2.2915921979193867e-02 -1.0876906172083414e-02
52 4.8069408315290805e-04 -4.1586594877052047e-03 7.4447236298708303e-03
520 -3.1898147941684306e-04 7.0443431962788014e-04 -3.5105318238990700e-03
867 7.3054002131143067e-03 1.1345461776418098e-02 3.6065326318920794e-03
54 1.8149938759677996e-03 -3.7609646806528595e-03 -2.6297075578341979e-03
1413 -3.9997308743180441e-03 9.6092157117596208e-03 -2.9963262747939494e-03
858 1.1655081356917145e-02 2.0391737015758044e-02 -5.7834878574215612e-03
1541 6.9342856781004361e-03 1.9950738446685125e-02 -2.2585601067186982e-02
767 2.2670236173764091e-03 -9.7813890413182853e-03 -1.6014184131966291e-03
1864 -3.4438845153092388e-03 3.2039251158173894e-03 1.3805438660664804e-03
1489 -6.3886435591408094e-03 1.7114650123658110e-03 -2.9824065470329809e-03
1490 1.0973688264035905e-02 -2.3933336946024342e-02 -4.1756793725796692e-03
1865 -6.4297010117742043e-03 -1.5855496203990783e-02 -9.8188596563217011e-03
1491 3.6930608510407619e-03 -1.4385442154352269e-02 -1.8026908216217765e-03
1436 8.1670596863221744e-04 1.4924124167917021e-02 -1.0702263997717428e-02
241 1.5559986581485572e-03 1.5445215113289417e-03 1.7923844800326583e-03
1328 4.5624464397624213e-03 -2.3615823630861402e-02 1.3012305747465926e-02
724 6.9185042998645765e-03 2.0891724758789415e-03 4.3415357320471821e-03
178 -1.0137667351953919e-03 4.8143140048802144e-03 -5.0051926536032734e-03
856 -1.5314395654917223e-03 9.5653716905461199e-03 2.8648249299553551e-03
179 -4.8834808965331758e-03 9.6225589739171360e-03 -4.9307066263072031e-03
1435 5.6923457678661124e-03 -4.0005786553146848e-03 -9.1912286092006969e-04
1437 1.1044912478689454e-03 4.4860933441206547e-03 1.7954269225692401e-03
2905 -1.3516298974999847e-03 -3.6179428802086164e-03 3.6611323426273268e-03
1540 2.2842868120405931e-03 2.0727902839822580e-03 4.7066710594022062e-03
1866 8.1724363428527648e-04 -1.8693719149722539e-03 1.1176443229039264e-02
1327 3.4205301308870319e-03 -8.4658355596653847e-04 1.6912065912720237e-03
1412 2.8950814969818425e-04 -9.2720952728208884e-03 5.5457771278001862e-03
766 1.0760746677293722e-03 -4.3349761100527884e-04 -5.1594532927089101e-04
1411 -8.8247282581257222e-04 -4.3478051218860574e-03 7.5243842054935697e-04
768 1.6010743932189493e-02 -4.7386630940006030e-03 1.5263509427181794e-03
857 -5.0880435150341425e-03 -4.6923567796974585e-03 -9.3866422460237731e-03
726 1.1936272719938397e-02 1.5071802756002254e-02 4.8703016421911827e-03
725 6.0784135042243606e-03 -1.6105715635656926e-02 -5.4419278050309959e-03
2099 -1.3203026276208090e-03 -4.0407534450991765e-03 -7.4695038354165915e-03
2508 -1.2429100541592422e-02 -3.7757366062184244e-03 2.7695928340330904e-03
278 -2.4471779357468491e-02 -4.6637504086616483e-03 -7.0299658971147826e-03
2189 -1.2076842140700988e-02 1.3763248902775183e-02 -5.4467205283383162e-03
184 -1.3370677974706058e-03 -2.1181218679997352e-03 -1.0767782021017876e-03
186 -6.8597066072124653e-04 -2.4807739466487351e-02 3.7472477296174923e-03
2679 7.9605820971393199e-03 -9.0245930166483398e-03 3.5203315253006622e-03
606 1.2975570010366907e-02 1.5816805232353161e-02 2.1761214594011721e-03
185 1.3057456280607019e-02 2.6695690874578596e-03 -2.8754106552959471e-02
2892 1.8774095818502234e-03 9.0180163863393687e-03 -5.4352763351941183e-03
2241 6.7989962765905689e-03 -7.7259090672328005e-03 -4.9822602639497974e-03
2239 -2.9777129282963139e-03 -5.9242511723265375e-04 -2.5537673784510888e-03
2891 -5.6711962233779315e-03 -8.7875889729544790e-04 -6.3431248603779966e-03
2667 3.2496449887104333e-03 8.8651786314507888e-03 -8.1910973101956552e-03
605 -7.4332748735671189e-03 -1.1517735964864714e-02 -4.7061920462262022e-03
2665 -1.4875671949838997e-03 7.6611446219751449e-03 -3.3770709533118438e-04
2678 -4.9075331714000005e-03 6.5418989679525315e-03 1.1580583271146973e-03
741 5.1319494394079261e-03 5.0595341857605381e-03 -7.5278150951162128e-03
1472 -1.9172278236047463e-03 1.0615589184333809e-02 -3.5763088232222402e-03
604 -3.9440007900400382e-03 -4.4503977014445899e-03 -1.0742646635055907e-03
2188 -4.3636234882766974e-03 2.1587013111639239e-03 1.3503122235789967e-03
2677 5.9165740599725989e-03 -2.7745163716246125e-03 6.2209406739531471e-03
2890 2.5536771380316988e-03 6.1118151312855307e-03 -3.5370429579054752e-03
2583 -1.0242439246593378e-02 -2.3237499920974024e-02 -2.1414453793001817e-02
1100 1.6243607326883867e-02 -1.5292652647479763e-02 2.3635525345392220e-03
572 -8.5121034622814330e-04 9.3363596142561310e-03 2.1535354189855166e-02
358 6.2296778175137844e-03 8.9150846054707761e-03 -8.4634125767322366e-03
1712 -8.9728447522333960e-03 5.3710823919279520e-03 2.5056849057876189e-02
359 3.8874662100681617e-03 6.5008403636508073e-03 -8.3009473998657823e-03
1514 1.8526590041298665e-02 -3.6947824822067920e-03 1.2962210693828949e-02
2821 -3.5411168496788558e-04 -4.7314737419248574e-04 4.0340051862266194e-03
573 -1.1433445199163257e-02 1.5075682351659883e-02 -9.1209426857159059e-03
1018 -1.3027070721865278e-03 8.0275810672916130e-04 7.7398355906863111e-03
728 -1.5660631247862572e-02 1.9070589383300626e-02 1.7070641529873466e-02
2823 2.2015140476114792e-02 -4.1583423379667889e-03 4.0906949644672168e-03
1917 1.2532998882249439e-03 9.2886311736195635e-03 1.8915657512773045e-02
1020 1.4317144599764410e-03 4.3130445431718125e-03 -3.9730689206075699e-03
729 -1.3191226188596293e-02 2.4921892666423678e-02 2.4357720385598504e-02
2666 -9.6555389249598084e-04 3.1398747927782987e-03 -2.6381602805253548e-03
1515 -1.2919704109529785e-02 2.2215677715785795e-03 -8.2732358528745664e-03
1381 -1.0558374000585013e-04 1.0366557341149737e-03 -1.5479116944983754e-03
727 -8.2162277178986361e-04 6.3211963998327358e-03 -1.5643737636205396e-03
1711 1.8833479749900814e-03 -2.2267123824262014e-03 -5.1450668966821975e-03
1400 3.7682792433808079e-03 -1.3330626400267742e-02 -3.4611254687366699e-02
1713 5.7829577236411336e-04 -4.5793537437451301e-03 6.3539214230296220e-03
1382 8.5557580803900749e-03 -9.2651573775178533e-03 -1.7929793354515909e-02
1513 -3.0256261329472944e-04 9.7275433817273099e-05 -4.1992889591212717e-04
360 1.9339513921423405e-02 1.8215528383329377e-02 -8.9435761525015773e-03
1915 1.4560053412619582e-03 2.2275502287039655e-03 3.2977914269122451e-03
571 -2.4181777110453000e-03 -1.6206550250791952e-03 8.9001092443467483e-05
1383 7.0081053625257730e-03 -3.7092124277508731e-05 6.8856235943263837e-03
2822 5.5611626680197052e-03 -6.0773858915797270e-03 9.4149106857267170e-03
1632 -1.0137425481621068e-02 5.6952933441110310e-03 7.7181570651855729e-03
2734 3.6711931720336852e-03 4.2559082688372544e-04 -1.2324486617979818e-03
2735 4.7277158449271078e-03 6.8575609041537596e-04 -5.8803821362664616e-03
2174 -2.0640472134461751e-02 1.3491955331201481e-02 1.2838449856981192e-03
1385 3.6712036649356266e-03 5.9248212044443610e-03 -1.0568658435745016e-02
1386 -4.9815702675354186e-03 -5.8617471989159979e-03 -1.1965325158594796e-03
1384 -4.2848017181142863e-03 -4.4622591428111020e-03 1.6917367475553815e-04
2173 1.0859964615356121e-04 -2.9247262896451003e-03 -4.0436977612074484e-03
2471 2.2995811364156432e-02 5.2172226327934770e-03 -6.8415285194667330e-03
3157 2.5550598210697714e-03 -4.7274054182823207e-03 1.7280050966200608e-03
3161 -4.9962508851216164e-03 -2.2509301579953568e-03 -6.1119967713780714e-03
3158 7.3655585362662529e-05 3.0327010357983700e-04 -1.4779792218927736e-03
3159 5.2839980968034297e-03 2.2230862840102086e-03 -1.3474020324147639e-03
3160 -9.8417570267789059e-04 1.7673785277024449e-03 -4.0364836147455674e-03
3163 -7.3224209478205669e-04 -5.6785411993544145e-03 -4.2956805156022775e-03
3165 -3.9023574787129230e-03 2.1412582794805217e-03 -2.7486333888771999e-03
3162 5.7902291338006841e-03 3.8266865211940531e-04 -8.9263292122894141e-04
3164 4.2344935883313514e-04 -3.0620993852713248e-03 6.0165840110905488e-03
3166 4.5950182416227689e-03 4.9605241630376975e-04 -2.6801726501568045e-03
3167 -5.2488174180585151e-03 -5.4425815961216305e-03 -1.0482422372652580e-04
3168 -5.3214290801833928e-03 1.3299873546246228e-03 -5.6679444223430315e-03
2710 2.5520758247569207e-03 -3.8867337536030084e-03 9.4840885347848719e-04
242 -2.0434290683065882e-02 1.1307216302850465e-03 1.3095907927208706e-02
1774 1.6764077895006048e-03 -2.9153893358856071e-03 -1.4615154134952936e-03
1775 7.4567245903410847e-03 -2.9168479967800497e-03 -5.9013120162800133e-04
1776 -1.9511315578624731e-03 -1.2873744646694331e-03 1.3396225928690768e-02
2711 -6.5993596044288776e-03 1.3053312165217611e-02 -2.0455251051035767e-03
400 -9.3935492899290809e-04 4.7248972595863404e-05 -3.0969691589998697e-04
402 -3.1125394556443713e-03 -1.4391756227480302e-03 -6.9729364117783674e-03
401 6.6766313797316469e-03 -5.1505960592765496e-05 4.0960650442042387e-03
2724 8.9695393234560331e-03 1.5717515199710802e-03 1.6132527513579163e-03
2395 -2.2710736428829879e-03 -4.2541230860558337e-03 1.3871295091416860e-04
2722 -7.0753040360027105e-03 -3.1656739270588190e-03 -1.3823234540250476e-04
2606 -5.2340162631744234e-03 -2.6592916357370752e-03 -5.3044051012593376e-03
980 5.9618651102462420e-03 -1.8514032095880779e-02 1.9364931822965691e-02
2723 2.0654144215647707e-02 -5.6679020819098980e-03 7.6811018720970717e-03
2628 6.9075651417137684e-03 1.8852776884830402e-02 -4.2839513671261839e-03
2605 -7.6931201415609890e-03 -1.2926767478161475e-03 -3.0638717640032146e-03
2607 -2.8326940850808601e-03 -1.4514862924568227e-03 -2.8759799920848989e-03
981 1.4575190796209458e-02 1.6726793814671417e-02 3.1803413262247813e-03
2626 -5.4378621840565269e-03 -5.0927546510865949e-03 4.2028165830627628e-03
2627 -6.6379130991858805e-03 -6.1794067580770873e-03 -4.0103481526717281e-03
2700 -4.2229041087865080e-03 -1.5121841133450430e-02 -3.1853519369046978e-03
979 6.5445241493888332e-03 -6.8071158790455758e-04 -1.5463360416107261e-03
279 5.5746042915138325e-03 -1.1440992983200846e-02 -1.4677948968227369e-02
2396 -4.7656498629185034e-03 -1.2560993393010077e-02 2.1434111451506758e-02
277 -3.5552727039851934e-03 1.8250427893229558e-03 -5.8642829825264493e-03
1542 1.0811756018221045e-02 1.3187534027724705e-02 -1.0288907432881321e-02
2712 5.7437788832010784e-04 6.0129290802104886e-03 -9.3100707350521061e-03
1479 -5.6199881955684150e-03 5.0226838858212096e-04 3.3185905938931145e-03
149 3.3581567987450100e-03 -1.3391592519058902e-03 -1.6079276337423246e-02
2559 2.8778250852740855e-02 -5.2814465516212612e-03 9.9534800796868394e-03
180 -1.3813498376336598e-02 2.6023551998000296e-02 -8.7552730313659646e-03
1773 -1.2031108177551418e-02 7.9052888452927211e-03 7.3140110774178998e-03
1102 4.0484374551536216e-03 4.3711521115529107e-03 8.7729244097251252e-04
1772 -1.8904605945064087e-02 1.4369518797667362e-02 2.1549306660484761e-03
2579 -4.6402148402576793e-04 4.3013157048190217e-03 -1.0281697106636100e-02
1012 -2.5659607815228303e-03 -5.6888427181000945e-03 -5.2759925556887339e-03
1852 -3.9069618194498548e-03 -1.6071705566232009e-03 5.4018774304839139e-04
1771 7.2155245696745816e-05 4.3729214249734914e-03 2.2307463012594484e-03
1894 -6.2255037102369482e-06 7.5405434691239682e-03 1.2169532250583177e-03
1895 8.4689440983694055e-03 1.6824135236465646e-02 1.4244623891855693e-02
197 -9.1110451683734228e-04 -4.6141938106437491e-03 3.3201056766364234e-03
198 8.3911843146805987e-03 -8.7713343007692741e-04 -1.3223983827312262e-02
1896 -1.0438019255851069e-02 -5.0870966099889302e-03 1.0357075713616505e-02
196 2.2532529627165253e-03 -1.5212174835605319e-03 -2.9501194357231513e-03
1132 -3.3459473637916298e-03 -3.1540127260972152e-03 4.6090764573769932e-03
1134 -4.4536907209047679e-03 4.5414961621883338e-03 1.0921192612331328e-02
1613 -7.6019745930264145e-03 1.9067794250713376e-02 2.8666175869543767e-03
1133 -1.0618127432550303e-02 -7.1315253311998094e-03 -3.2959849119297054e-03
1013 2.3720779222368479e-03 2.7311806708557552e-03 -1.2798467357526121e-03
1854 2.5119360731882803e-03 -7.3393641819086202e-03 -8.6389217013058874e-03
1104 -6.7624302814246109e-03 1.4728448518468351e-02 9.7968315115491440e-04
2578 -2.0035789288653802e-03 4.7118891648203166e-03 7.5317325788330017e-03
1103 1.3351833573584354e-02 1.3130694395495626e-02 1.3070897728579519e-03
1014 -1.8025694089520079e-03 -1.5373798144591496e-03 -1.8897172601597501e-02
740 1.2572421543860516e-02 -7.0131896927548842e-03 -6.1225157571896073e-03
739 -1.0344830027350741e-04 3.7811577518550646e-03 6.5865973009337911e-04
2580 1.3858340472859396e-02 2.0139855582382026e-02 5.0757426080176617e-03
406 4.4262840268011602e-03 -4.2519351023363999e-03 -9.8148397537807020e-04
2240 1.5305920062926635e-03 -1.6488845632596579e-03 3.6323601317089530e-03
638 -4.4128789899894709e-03 -5.8078707706075931e-03 -2.2303096965991081e-04
1019 -5.3273048126464212e-03 -3.9298002759938154e-05 -5.0259006412344291e-03
1293 -1.5155272658675629e-02 1.7139225480907683e-02 -2.8835527091632691e-03
1536 -3.9762510855805878e-03 -6.9999761224726993e-03 5.3608819626481136e-04
48 1.4497942306642326e-02 -2.2784428292055609e-03 -5.2405174924793352e-03
2299 4.2538255683829528e-03 -6.3427326346881079e-03 -4.4384495145739089e-04
1612 -1.1078578448514946e-03 4.4304054664593357e-03 -8.5370662509133847e-04
631 2.4602370132207401e-03 3.4923103156601128e-03 -2.0954756933542953e-03
1614 -7.2366966459058140e-03 -8.3033696071547897e-03 -1.7766472544483020e-02
789 7.6219668845478698e-03 9.6005255842329766e-03 -8.2953401300928532e-03
407 2.5925773015804014e-02 9.1720448746583291e-03 1.1872412374696637e-02
787 -8.4859970785108776e-04 7.4768269655708990e-05 3.4235339391419962e-03
468 6.8921948222058623e-03 -6.4295643185487798e-03 5.9906753513380554e-04
467 3.0247120318997931e-02 -2.6137251762846682e-02 -9.0388990263309509e-03
633 1.0563304418909198e-03 5.6025544589975605e-03 -1.3854792019093804e-02
1401 -4.4987817357241382e-03 8.2810774066815352e-03 -7.9392423776412559e-03
1399 -4.2464565621423310e-03 7.7689171478143816e-03 -4.4838407269171673e-03
1522 -4.9990385964249857e-04 -5.2396645940198730e-03 5.1630742063369936e-03
1524 -8.8274288971665988e-04 4.8997999772987071e-03 -1.0272231549489332e-02
1534 -2.2590880438619694e-03 -2.3252769740798691e-03 1.4027659681932491e-03
46 -1.7519758154079489e-04 1.1260022360379371e-03 4.4833548341306874e-03
788 -9.6683822460929113e-03 -2.7930073377621335e-03 5.8025129309520647e-04
632 1.0851262140487050e-03 7.3987962496330755e-03 -2.0564764245647987e-02
1377 -1.6237727166524649e-02 4.7285333585433362e-04 2.0093219435749436e-03
1376 4.1550308505567462e-03 -3.5611890215770901e-03 -9.3592065445026445e-03
2300 5.3375709530077272e-03 -7.5759117383759128e-03 -6.6946683453847702e-03
1375 -3.7112663935086206e-03 2.9592318800592795e-03 3.3872170638698390e-04
466 -5.1966801358258139e-04 1.1335813166277434e-03 3.6813401854212673e-03
1535 1.7838199907197063e-02 4.8183686571194734e-03 1.1832787060764212e-02
1523 -8.7507189914623983e-04 -8.0218824140906968e-03 4.6044116303748011e-03
1291 -1.5306237453630695e-03 1.7832355050986476e-03 -4.4798364466556500e-03
47 1.4339471748560527e-03 1.4099815362006857e-03 -3.4754808285634190e-05
637 -5.6947410587213513e-03 2.4185603641498754e-04 1.3124429210688257e-05
176 -6.7541243451756244e-03 -7.2739137428302261e-03 8.8887831199056418e-03
639 -1.9617211677733559e-02 1.1659013331148094e-03 -1.4319603212272791e-03
175 4.6439973144985916e-03 -2.9207688745988723e-03 -1.6106041883764582e-03
2175 5.9580173921576019e-03 -1.5457743806394472e-02 1.8228013487883790e-02
3169 -6.7187105599207284e-04 -4.7606970990414915e-03 2.4184713588587120e-03
3170 1.0541169664124686e-04 4.8180876121103075e-04 -1.9773931731451202e-03
3171 1.6512305330023788e-03 -2.6518379127935037e-03 5.1936268957697091e-03
3173 -5.8172817341149126e-03 4.1973015018278723e-03 6.0388764026042844e-03
3175 -1.6204750250965443e-03 5.0904598484888281e-03 -1.9806156503787537e-03
3172 -3.1515628058215298e-03 2.3744073884444093e-03 -5.7777725042198382e-03
3174 -2.7166298284090431e-03 2.7069554188593279e-03 -5.5418125469430760e-03
3177 -7.0115845587803846e-04 -3.4635851510261195e-03 -5.7310830601788624e-03
3178 5.2498900403207746e-03 2.5313863516805229e-03 4.8515263675095715e-03
3179 -3.8724269672573957e-03 -1.6857381089362730e-03 -4.0555683429710776e-03
3176 8.4569802748169171e-04 -2.4961593096104544e-03 -6.0322256443474161e-03
3180 -5.6254240103458530e-03 7.9420209901905092e-04 6.3238234810166546e-03
1308 -2.9624750163106117e-03 3.5940148692969898e-03 1.0565283851760981e-02
1605 1.4068290934597485e-03 2.1960901130182553e-03 6.2706176032711882e-03
1080 -1.1475428106286292e-02 -3.3777350410890188e-02 1.3604057416910632e-02
2557 2.4617104369861753e-03 -6.5235337638176322e-03 4.2122513925566488e-03
2558 -1.1591432079838262e-03 1.1996039864358808e-02 -1.4937808161138294e-02
2630 1.4205497280019493e-02 -1.3073174006450396e-03 1.6308277140420595e-02
1128 -1.1390071730225519e-02 8.7060495129630145e-03 -5.1648016726146438e-03
2631 -1.7077538717756826e-02 -6.9661272069239978e-03 -5.8450175053954990e-03
2629 -3.8618643336823535e-04 -1.2262746251281555e-03 5.5704326173244617e-04
148 -2.9180479271766757e-03 -6.5599734078930832e-03 -5.7810042620804062e-03
2864 3.1710463935450154e-03 3.9894189882445762e-03 8.4469361331454707e-03
1567 -2.4918548866717507e-03 5.5075726064858490e-03 -6.2018053540497551e-03
2942 8.8886991226208127e-03 3.7823232461241883e-02 3.0170964857422970e-03
2941 -4.9210957494008542e-03 4.7677040537428914e-03 1.2594757153478043e-03
2943 -7.9722076702973856e-03 -4.3658214620335232e-03 -2.3661470554904389e-03
1127 -8.3784179643993945e-03 4.3000190547352228e-03 -5.2594200145573465e-03
1921 3.1039107591693225e-03 -9.8767911131816578e-03 -3.8641690300748582e-03
1603 -4.6196538009351910e-04 1.6288709912341665e-03 -1.3594816718938848e-03
1126 -2.9011339732301243e-03 -6.4199177409057968e-04 -5.1564053312158561e-03
2863 1.3248499627247835e-03 6.5156599679538057e-03 -4.1858226110806909e-03
2865 -1.1015425448918193e-02 1.0979808428213613e-02 -6.5558730277420728e-03
1078 -4.4057976288269129e-04 -7.7432182201489959e-03 -6.3801312443578706e-03
1079 1.9400924037057406e-02 -4.1254113624410874e-03 1.6140547117575722e-02
1306 -4.4189463195917784e-03 -1.7392667542120367e-03 2.5389963790017434e-04
1922 -1.0044149100298338e-02 -2.1497051325027588e-02 8.9338804222526373e-03
1604 -6.6763136695903490e-03 5.8747281251796107e-03 -4.0983344858324805e-03
1307 3.9320200652066088e-03 3.2298546477648889e-03 9.5331818000042954e-03
1569 -2.8254401018497815e-03 5.1540963822593877e-03 -2.1129558395519411e-03
876 5.6314416411566391e-03 1.1591799566585856e-02 1.6742923599475511e-02
1568 -8.6845978165489505e-03 3.8975290319114260e-03 -1.5253585285873891e-02
150 -5.7090613754971842e-03 5.9578538656230393e-03 -1.2460350826429859e-02
2116 -1.5583449944579640e-03 -1.3215964274138801e-03 -3.1206102579811163e-03
2121 1.2610022837055023e-02 -4.7767806191564219e-03 -1.6016154388371215e-02
2746 2.1544378550815359e-04 3.3454787823749021e-03 -2.4558224624689458e-03
2648 5.1438998889436743e-03 -1.1308198133536640e-04 1.8165996904982003e-02
2647 -5.8036769221571610e-04 -6.6373242526303387e-04 -1.3398925482803628e-03
1054 -9.3991402188847435e-04 4.9679100457827724e-03 -7.3496687014193917e-04
1799 -2.2482738223797070e-02 6.0215072266269513e-03 -2.5441765582990689e-03
2082 2.3055812585969717e-03 3.4874761626729001e-03 2.0604710838630965e-02
1798 -2.7236935546402861e-04 4.7957480005509671e-03 6.3468093851296366e-03
1555 -6.3481888105224895e-04 2.0301740563458313e-03 6.8600776680488142e-03
1556 -1.4195637160606730e-02 8.6688096724011794e-03 -3.3579064633728808e-03
1800 2.1819445942995105e-02 -8.7149408580874266e-03 1.6410896328943821e-02
1055 5.8089741288240987e-03 -5.8682451982652413e-03 1.9636452677870568e-03
1056 1.5322097571260507e-03 -1.1456636633444969e-02 -6.2995663731635586e-03
1853 -1.1531213055860842e-02 -7.9285889736958864e-03 2.2535412149929787e-03
2649 1.0355879127758212e-02 -1.5825779908986995e-02 -1.0147642969091809e-02
2118 -9.2673028557318567e-03 -1.5939036723401838e-03 2.1109950758311388e-02
1557 -1.1923818158299170e-04 1.1138768451382768e-02 5.1559595526866776e-03
2117 -1.7440930049583539e-02 -2.5670791909191391e-02 -1.6457052851267442e-02
2120 -9.8802743968861243e-03 1.3750370796863438e-02 -7.2972732437795729e-03
2646 -8.4381446341193593e-03 7.7380676121540761e-03 -2.2862380275146671e-03
2119 1.3583952038966720e-03 -1.2342228470541298e-03 -2.7692866866726555e-03
2101 9.9205663586788380e-04 -2.4979942735529523e-03 -3.3622354173919707e-03
2319 -2.8236173587638043e-03 1.9003025387347355e-02 1.7666958940240417e-02
408 4.1725940200225183e-03 -2.6174481346348528e-03 -3.9532554203660754e-03
1027 8.8483676639592185e-03 -1.7664518969623217e-03 -2.0743021288605629e-03
1506 8.4801410175628148e-04 2.7875261386014929e-03 -3.3650559755138225e-03
622 3.0095025161197527e-03 1.5747066235087565e-03 -2.7133735262575853e-04
624 -3.3391512750255031e-03 -3.1461604636668548e-03 5.9862075815904636e-03
1504 1.3171105271117875e-04 3.0146352911901678e-03 -3.2807761802408930e-03
2318 -1.3934358434051932e-02 -3.4174072341697950e-03 4.9829006065926348e-03
2645 5.2270483548286684e-04 1.4439078192857510e-02 1.1228358697208087e-02
261 1.2603284552924532e-05 -1.8677855202702411e-02 -1.4369876634641775e-02
623 1.1929570748517299e-02 2.0198205652789888e-03 -1.6951081008848744e-02
2317 3.3517065040862548e-04 6.1389174043415722e-03 4.1183360310479827e-04
1505 -9.7997661363654503e-04 -1.1585583369139726e-02 -1.6015954118624247e-03
1292 1.1932251356515091e-02 -2.1553287131077319e-03 -2.6592413694073343e-02
2301 2.5876837617683493e-03 -6.5403362880434484e-03 5.9640511512038651e-03
2172 9.0391608559315401e-03 1.2648315548075150e-02 8.9000842744560212e-03
1678 8.8116511333864039e-04 -2.1145220162512059e-03 -8.2598219829968327e-05
1679 2.8791501759454895e-03 -4.8773070730415190e-03 -4.3059827247407603e-03
2617 -2.6733983089320484e-03 1.9476228093126319e-03 2.6741268378800680e-03
2644 4.4446376394703078e-03 2.2370289560040671e-04 -4.0847468152810599e-03
1680 -2.8755126502295994e-04 -3.8127964173428723e-03 -9.1812506219357277e-04
2171 2.3482985380470625e-02 -1.4085727343270037e-02 1.0796925059860877e-02
1028 1.5319018650108525e-02 -5.6186190787509051e-03 4.5482184289428410e-03
2618 -9.9106539469471146e-03 -2.2106890908610056e-02 1.9420527136869235e-03
2170 -5.4953539357450749e-03 8.4664291789346598e-03 3.8882659470858500e-04
1029 -7.4461438834025001e-03 8.5256597832502679e-04 -1.2451078003585178e-02
3181 -2.1902347756467978e-03 6.2966359982111779e-03 -4.5421641257792226e-03
3182 6.0968566169708246e-03 5.1477905377211516e-03 1.1927157945150523e-03
3183 -6.2764072073820754e-03 -2.5787066569683916e-03 -6.1847913251685616e-03
3184 -3.8497227294274732e-03 6.4218905774781950e-03 6.4418369789239595e-03
3185 -6.1978033633477425e-03 -2.0112983857748686e-03 6.4423613366896559e-03
3187 5.8715378862515179e-03 6.3954909093500685e-03 2.9184142207580900e-03
3186 2.6150776047163247e-03 3.5919400764201515e-03 -4.2112308154135750e-03
3188 -7.1108008494403076e-04 3.1861828073354347e-03 5.6205697776243345e-03
3189 -3.7219449159951821e-03 6.4592459377520485e-03 -5.9823312202988898e-03
3190 -2.4611906447455215e-03 8.2460525918555557e-04 -2.8980266120464133e-03
3191 1.4113073639538882e-03 6.5736186709936502e-03 -4.4869285942746662e-03
3192 7.3419331133850647e-04 4.1952196673340214e-03 -2.2731947554497081e-03
874 4.8300371013789943e-03 -2.7192191594333820e-03 3.5761803619929040e-04
2849 1.1308935216876802e-02 1.4684776968729310e-03 -1.9117025233236117e-04
2850 -1.4568089463324311e-02 9.8095245641467068e-03 -5.8228608711859871e-06
2848 -5.7383646807558711e-03 -3.0342480163145888e-03 -4.0892614321427611e-03
875 1.8698476320156858e-02 -2.0457803386247985e-02 4.4950138227609019e-03
202 -2.5522632102483546e-04 6.2542849606383978e-04 3.1434911690826482e-04
203 5.7635321519645295e-03 7.2208960834011819e-03 -1.1378146850219567e-03
204 -2.2176582973173430e-03 -1.6517431568844685e-04 -7.8957675278779095e-03
2014 7.9835215340298520e-03 -5.2876275377723774e-03 2.3177958903295099e-03
1357 -2.5479569665133725e-03 6.0819739874716787e-04 6.0857858469878260e-03
1359 2.7832386831861946e-03 -4.1635641969865406e-03 -3.1760255320190472e-03
2015 8.3651141823156711e-03 1.5488371430162103e-02 -8.0789312037684250e-03
1358 2.2871600395052696e-03 -4.4961318595036284e-03 1.5430491890102026e-02
1923 1.1852330547352545e-02 -8.6621215223857892e-03 -1.8927055868046478e-03
1263 2.1908734469642840e-03 1.0180385177972843e-02 3.7398103798142817e-03
2795 1.8729595942634065e-03 -5.0207157992848835e-04 1.2282282892841521e-02
1967 -7.8142499070196804e-03 -8.2892380483164801e-03 1.1051543549215195e-02
1010 -7.9648772960258050e-03 2.9895564620583369e-04 -2.0654609390940658e-03
1495 -1.2861803308024836e-04 8.7917833885975457e-03 -4.0635907205018749e-03
2182 -5.5404475854393660e-04 -1.5678114382952936e-03 1.0768028184974727e-03
1261 1.7983889992495333e-03 8.5771856965571999e-04 -1.0048677465101746e-03
1011 -2.0770573375534646e-02 3.4135486521124888e-03 -1.0671225334451652e-02
1796 1.4768008323652776e-02 -3.7964112976371350e-03 9.8859294859101020e-03
1797 4.3153299051217307e-03 -1.9425697574785246e-02 -8.5700679314861077e-03
1496 2.0891669284387914e-02 -6.4340225711277624e-03 1.6248464384849382e-02
2016 2.3310753865727694e-02 -1.2704855838633428e-02 -8.3069424651408333e-03
1795 9.6346048383651151e-04 2.1298401827209005e-03 -4.5898698921744827e-05
2184 -2.1785134985233567e-03 8.5323991350928028e-03 6.7274637736897073e-03
1262 -2.3397833620032362e-03 -4.5949336141918613e-03 -1.9339873079443688e-04
2183 1.8933602199808319e-03 -6.9051683317354357e-03 6.4627121191474348e-03
835 -1.5067477677230105e-03 8.4470522139788902e-03 -8.1181136832762776e-06
1497 1.1278571387503515e-02 -1.0337639186320410e-02 3.3828143087437007e-02
1741 4.3508105328341476e-03 -4.4818381928680758e-03 -3.9003777859064467e-03
889 -2.5145693158753674e-03 -4.7218225784731829e-04 2.9141433406693141e-03
891 2.4203560030808323e-03 2.2791729064191642e-02 7.9508746099886830e-04
1742 -6.7257429445537085e-03 7.1272809189506245e-03 -5.9109294432828910e-03
2080 3.7799456700035572e-03 -6.4206116342482014e-03 7.6188564496972654e-05
1743 8.7108151167801674e-03 -8.6201218674983541e-03 -1.0615699813936326e-02
26 1.1171949317975655e-02 -3.3712579411286272e-03 -5.2487685303290238e-03
1422 1.1668378976632872e-02 3.2154325013867753e-03 -3.1549924263980398e-03
499 -7.5407746113771712e-03 -3.6215877919548424e-04 7.5047209476328050e-03
1009 3.7153215749221361e-03 1.6414884846030380e-03 -1.8460594119547272e-03
1214 -3.8494903220483469e-03 3.7315830943272781e-02 3.0022622402863713e-02
743 3.4801423108017124e-03 -7.1500150571613824e-03 2.4320918983795365e-03
1213 4.0510461884778071e-03 -2.2547248933685576e-03 2.1230472087534914e-03
1794 -5.7281832263960265e-04 -5.8702346324661144e-03 -1.7893339245302843e-03
2910 -5.9640206431240796e-03 4.4334214667070193e-03 1.0581353289291121e-02
2908 5.9876698990757194e-03 3.9112722221413344e-04 3.1094295058618411e-03
500 1.0780851799153111e-02 -2.8120834855028020e-03 -1.8448499673124633e-02
1793 -2.8259119629318011e-03 -1.4569081758358580e-02 -5.9998150664250715e-03
742 1.3720660499302122e-03 3.8193899305692157e-03 5.7416570531840030e-03
1421 1.8316904386576961e-03 7.4906122538769798e-05 -4.4528950248501802e-03
2783 -3.4840638974047357e-02 -4.9471215612120079e-03 -1.7671891747434817e-02
1420 5.1451729914404436e-03 1.0489472447833203e-03 -4.0150819275341504e-03
1792 2.0135135927126361e-03 -3.8889002000980339e-03 -1.1502052182832832e-04
1215 -1.8734738513876810e-02 -1.6466915049358866e-02 1.1600413744273725e-02
2909 -2.6834821130423412e-03 9.9525288772630907e-03 -1.6863049614755704e-03
2081 -3.4503146113107385e-03 2.3244376839876395e-03 -1.7583963857587006e-02
27 4.3279148330957135e-03 1.2619301662373275e-02 -7.7459518473969174e-03
1425 3.8606892246534669e-03 1.2991297280906733e-02 -1.0119809451498506e-02
890 2.8201520281089664e-03 -1.3401081726900655e-02 -1.8497893198189102e-02
201 3.9953196180934876e-03 4.9708422734440639e-03 -5.6831828721217738e-04
25 -6.2389809669455383e-03 4.3500980097967721e-03 2.4125234613505270e-03
2782 -6.5347594074281479e-03 -8.4812970475645554e-04 -5.0435115593308218e-03
2721 -1.6691381955105330e-02 8.9289117388029800e-03 -1.4327850859318320e-03
1371 1.6538147464404875e-02 -1.4768308135963562e-03 -1.7149894357093229e-02
1370 1.3086406053410139e-02 3.4549571766121265e-02 1.0896624317980897e-02
1595 6.9825527553319632e-03 -1.8984397237556506e-02 6.3213198181478851e-04
1778 3.9279609889072871e-03 -1.8159876462722872e-02 8.8703579383737040e-03
1424 1.0203452168190049e-02 -8.6043418721740465e-04 1.0098869654863913e-02
1369 3.6050943784140619e-03 2.4024076757162716e-03 1.0757391274080882e-03
2967 -1.5489034130711642e-02 -9.7811674958745379e-03 1.3124882687256989e-03
182 1.5996903364652638e-02 -1.6777768058126655e-02 -8.7190064654657691e-04
1594 -1.5732827114868688e-03 -6.7162261272547003e-03 2.0435541110993124e-03
611 -1.5391402511801612e-02 -3.5118986034033822e-03 -3.3411321978707728e-03
1423 -6.0922833518521381e-03 2.0038090440678727e-03 2.2944501400013620e-03
2199 -6.1166881739485451e-03 -2.1124526749668280e-03 1.4636216733592812e-02
2965 -3.8592176417801181e-03 -7.9389173255418818e-03 -1.2930403599094430e-03
1902 -1.5704652084644465e-02 8.0670323803760501e-03 -6.5583019074383587e-03
1900 -2.2964292407832670e-03 -3.3307768020722220e-05 -4.5673146272718224e-03
2966 -3.8484665551191096e-03 -2.0954356915722332e-03 -1.1739280844409405e-02
2719 -4.4687664853558804e-03 1.3653938080594259e-03 -3.2513814709857307e-03
2720 -1.0374313288721732e-02 2.3376304937042032e-03 1.1370766857998817e-02
610 2.5870629278578689e-03 2.1701030902823615e-03 6.9615396434966645e-04
1901 -2.4087290419271264e-02 4.1150067020970455e-03 3.3745097067693973e-03
1596 -3.7084961850087587e-03 -9.0742927316133943e-03 4.8661488975272208e-03
2619 1.4927884656606250e-03 4.7099281070869699e-03 -4.3834249043273980e-03
260 -1.0821334314214327e-02 5.5457902798364475e-03 -2.2121444890685613e-03
1749 1.0037741186986414e-03 1.1721365977973613e-02 8.8118004838612515e-04
286 -2.6247883248591325e-03 -3.1728099701345876e-03 -3.1708988386031740e-03
2197 -2.1353679699999042e-03 2.5377309493009834e-04 1.8663595606057005e-03
259 -9.6599457635643076e-04 8.3791765615251947e-03 -1.8936702093724702e-03
2103 -1.9438112028226501e-03 -3.3190761077607728e-03 -4.2150472951754583e-03
288 -1.3516700650360447e-02 1.1971639496269518e-02 -1.9928932798911284e-02
183 5.1945853382678051e-03 2.6423183750193383e-03 -1.2976543635435545e-02
181 9.4897631459373421e-03 -5.6433555829221152e-03 -6.5978486695062542e-03
3193 5.4344368242630406e-03 -3.6987334096866887e-03 3.7143288731574281e-03
3194 -2.4500890181564771e-03 6.6839508070869050e-04 -6.0636003507615911e-04
3195 -4.6003175289648941e-03 -3.7906476613096640e-03 6.1961302903064648e-03
3196 -8.0533604555219746e-04 6.3268630805058271e-03 -3.3846944210645918e-03
3197 -1.4156171107993726e-03 -6.5756673789927099e-03 3.7297456374438889e-03
3198 3.2249171336435241e-03 -4.2650909839447998e-03 -4.5924209852694232e-03
3199 1.7654363376138793e-03 -3.9620047728711723e-03 -5.9908168656229539e-03
3200 1.6458348841398021e-03 3.4115784158840259e-05 -3.3486857074354875e-03
3201 3.5431063018129174e-03 -5.2626381665202759e-03 -3.6715568525541560e-03
3202 5.8826304381343819e-03 6.0867621441124632e-03 2.8530263974300553e-03
3203 -5.9140583760449285e-03 4.9888725687855760e-03 -2.0094700979583920e-03
3204 -3.9192212021046382e-03 -1.1754683742643474e-03 -4.7108971068529530e-03
438 -3.9506722364295380e-03 7.8310771263233499e-04 -3.1671123776046469e-03
2374 -2.0176147917127813e-03 2.4367915664978796e-03 -8.5852525309561209e-03
2376 -5.0996119206396196e-03 5.0253505440599148e-03 -1.0448504847346588e-02
2059 2.4973676138276968e-04 -4.1135545360065761e-03 -2.4326916004515377e-03
436 6.3866572643491359e-04 -8.5348725915549990e-04 7.3223271535555906e-04
2375 -2.6675882802314877e-04 2.0768743653248722e-03 -1.3595714464249948e-02
531 3.3103167869103800e-03 7.2635313318182258e-03 -1.9742807010274463e-02
746 1.6082069099796006e-02 -1.2382014001028140e-02 2.6507749605196060e-03
2756 1.4282830692223523e-02 1.0145663349430442e-02 3.0881758604625101e-03
1758 -1.0700583915263811e-02 -1.2659743650809538e-02 -3.8624634727945717e-03
293 -7.2687734459392092e-03 -8.8597418398345604e-03 -1.9041601830852843e-02
2074 -2.1593133983708750e-04 -5.4966719550604221e-03 2.1636077148233183e-03
2076 -7.5470297587924067e-03 6.1220440645870979e-03 -2.1280261053279272e-03
2047 2.4783695834736407e-03 5.9582910056384043e-04 -1.1792888147152088e-03
2651 -2.2549749691536794e-02 1.8093068301708967e-02 -1.4859645164411162e-03
745 2.8809413669607224e-03 7.7928912757720126e-03 5.7330987784648510e-04
2075 -3.3682802701394871e-03 -2.2365717348314471e-02 2.9310875250908603e-03
1756 -4.0550435141507961e-03 9.5815173824162893e-04 -2.8451443732781037e-03
1757 8.0648082900751060e-03 -9.6587870086286831e-03 8.4296646797842496e-03
1739 2.1068266460420120e-03 -2.2195553876037210e-03 -8.8102113479480949e-04
292 -2.6857214530857276e-03 -2.1630474812393886e-03 1.3743923616003531e-03
2650 2.0387682217995950e-03 5.6266521651270164e-03 4.2672799546180425e-04
2652 -1.7237676568829512e-02 3.4159964915974322e-03 -6.4955499990254455e-03
294 -7.7938591926495946e-04 3.2929973659195401e-03 1.6622114870714060e-02
2048 7.0326209214489959e-03 2.4201926622412707e-02 2.4044050304222749e-02
747 -6.4113364838758258e-03 2.8766948728661625e-02 8.0665403834082761e-03
1331 -1.0588799481010875e-02 -5.4656111751934296e-03 8.4820763627596173e-03
2049 -1.0666934103650952e-02 -2.8255196755276172e-03 3.7459931901243190e-04
2755 1.5023494012331379e-03 -1.3156562205237919e-04 1.1400939084824494e-03
1738 -1.8061072634566441e-04 3.4377434509925936e-03 1.2906240767511269e-03
1990 -1.5013560835117074e-03 1.1438414208409524e-03 -2.5982618402965590e-03
1867 5.0473698419678688e-04 -2.9336987970324134e-03 -8.5148336817690157e-03
688 -2.9068884383736428e-03 -2.6157953813282994e-03 -5.0802693749668409e-04
2304 7.6954911141014102e-03 1.4878153035420503e-02 -7.7284225438073346e-03
2920 1.9405541135448772e-03 -3.4966538366463661e-03 -1.3303130661477282e-03
2073 -2.4938357532793196e-02 -5.7219662203505288e-03 5.5484130856935784e-03
1626 1.0900428751255150e-02 -2.1171893308582525e-02 6.9427295024364838e-03
1625 7.4619386899855951e-03 -2.4228642729795520e-03 1.3718923458440072e-02
501 -4.4724556750075535e-03 -2.1377601174231133e-02 1.2186708773251865e-02
1624 7.5114262982282161e-04 2.1062571660125104e-03 4.8877653857837364e-04
1247 4.5921797567844878e-04 6.1530613551157246e-03 -5.3573004055054588e-03
1992 -9.8984632324569041e-03 4.7848602515297850e-03 2.2238736192733949e-02
1246 1.2905139091543337e-03 7.6448209276107227e-03 -3.1631974180984890e-03
579 1.7900751309691671e-02 4.8709455378573334e-04 2.0982148903281116e-02
689 -1.8925603635847478e-03 1.3522917278584507e-02 7.6450179054283664e-03
1090 4.0443060481485972e-03 5.4301044472346979e-03 -5.6423942983620792e-03
1248 -4.5543349082928907e-03 -5.6844551070649122e-03 -1.6924445869252843e-02
1092 6.6889951454639600e-03 5.3379088894232431e-03 -5.9692197528665100e-03
2922 3.1374410250745383e-03 5.1257110536199342e-05 -1.2030765326177077e-02
577 -4.4148209609846181e-03 -2.7462367137222133e-03 2.5163517468281167e-03
578 -2.0576129611427914e-02 -8.2814630798837205e-03 4.5466952327932134e-03
1330 -5.7685624338156142e-03 -6.4890796562588450e-03 7.1984229237879690e-04
1991 -1.6511723915535133e-02 6.0685548997054034e-03 1.3841858967011251e-02
690 2.0031135611255978e-03 -1.1856053672254714e-02 -8.9424873389563019e-04
1091 1.3918336778190245e-03 5.8349141179822265e-03 -5.4628635327296157e-03
2302 1.1986878148955451e-03 1.1753343292886572e-03 -2.0952269232678788e-03
1767 3.1011021101259844e-03 -2.2878769335552742e-02 -1.9918959296141192e-03
1868 -2.0799303618231497e-04 -2.0188705610222492e-02 -2.2684610829367208e-02
562 -3.6647046237575755e-03 3.9727159512282020e-03 5.4730109383947746e-03
1665 7.9595009952170871e-03 -6.6765845762377044e-03 1.1543883226200107e-03
1664 2.3693836441146272e-03 -3.9270839482731853e-03 6.5941083344719315e-03
564 8.0532169860364673e-04 -9.5366049679734954e-03 -2.4660793996370621e-03
1663 3.5038423946686320e-03 -3.9534931470962334e-03 1.2017409389010363e-03
563 -4.8155733888731005e-03 1.1722445291878957e-02 -2.9046621334513759e-03
287 4.2704546821098555e-03 -1.2468092552850963e-02 -1.0872077944489467e-02
719 -1.8951926291144286e-04 1.1676891036631836e-02 1.3606865572631828e-02
2071 -7.7622025868347910e-03 -3.4816301479244738e-03 1.5860223818780625e-03
2350 -1.0959145344865261e-03 -1.4479789211321462e-03 -1.4234747671886328e-03
718 1.8308867860817020e-03 -3.2099425948815255e-03 1.6974991529759517e-03
2625 -2.1652482422971915e-02 -7.0218051976516684e-03 -5.4297543252300831e-04
1824 -1.8935479061939781e-03 -2.7250020613399312e-03 3.9026652048006092e-03
2226 -1.7758948000828230e-02 -7.2322614648676819e-03 1.5128901755495385e-03
2224 -2.5602364001692419e-03 2.7195017084787667e-04 7.3316493538211382e-03
720 -1.0867701375464004e-02 -6.5093924277669635e-03 2.2468184568693036e-02
2351 2.6456692328612002e-03 1.7260516431229988e-03 -1.6594959170048438e-03
2332 2.2990575162788319e-03 -1.9195468546662185e-03 -1.3797654903340418e-03
2225 1.6289281286604066e-02 9.2607290434784592e-03 1.5731632285700622e-02
1822 -8.8881502839964347e-04 3.7970683040196907e-03 -5.1759714007283881e-04
1823 7.6725588278098401e-03 4.6635263686421874e-03 6.8787072391393101e-04
2334 1.1052860469973395e-02 2.3051248406664921e-03 1.0139845214674481e-02
2623 -2.7923420649167175e-04 -2.0835719960655042e-03 1.4566619668680994e-03
2256 -4.3981318450730762e-03 -3.6280087389074832e-04 -7.2291260896563576e-03
2254 -9.3636985007078508e-04 3.9248216440046510e-03 -2.5446923587197781e-03
2255 7.1877146098629319e-04 1.2642372090335826e-02 3.8581094364879423e-03
122 7.9793648092476455e-03 -4.2420068659397882e-03 2.0165086473928572e-02
554 -9.1104956911043852e-03 1.2484031197362262e-02 1.6936650833110597e-04
265 1.3937577814462242e-03 2.5412052752961756e-03 4.9344617885292317e-03
123 4.0085531674348860e-03 -9.1157094945289400e-03 3.5150995886268241e-04
267 1.6980845212883864e-05 8.6440491721645613e-03 1.7740824742861765e-03
121 9.0789214400308158e-03 -6.0282933291617739e-03 5.3008044436962370e-03
3205 -2.0023112009867595e-03 3.4655954702796435e-03 6.5006681872830218e-03
3209 3.2154675880604038e-03 -3.0196765190010620e-03 -1.2699744467021678e-03
3206 -4.4825681354427752e-03 1.1016419392029582e-03 -1.9350914830848906e-03
3207 5.6667241032256725e-03 5.4646718239557673e-03 4.8909181142107998e-03
3208 4.5902909284103819e-03 1.0760627959452887e-03 -5.0066133335022901e-03
3210 6.4911801351583984e-03 3.2288474670089553e-03 2.3978330483888101e-03
3211 4.2502969995861655e-05 -3.0709733547265605e-03 3.5970458673580397e-03
3212 4.9619983725398143e-04 5.8370777403427294e-03 -5.2533224883272809e-03
3213 5.0981459465020210e-03 -1.4742576269259375e-04 3.5811479399808709e-05
3214 -2.6000910727423401e-03 5.9071517344295717e-04 1.0161763735387105e-03
3215 1.1468560218802471e-03 3.7138889222169649e-03 4.5679502157053012e-03
3216 5.3036808922663917e-03 -4.3468512096087248e-04 6.6291065847848252e-04
2124 1.6610432251977258e-03 4.5516578750379889e-03 1.7536671464898415e-03
2122 1.1083095211821881e-03 7.8038242328451407e-03 -2.4906369838721115e-03
2026 3.1240904775103541e-03 2.8523939035300563e-03 -4.9091418349663700e-04
2028 7.6571698342749878e-03 4.4091270713837432e-03 3.5986184371258313e-02
589 -5.0044279242396853e-03 -9.3943813374242687e-04 2.6468147470310520e-03
369 -1.1108767080722431e-02 1.8930767228702673e-02 1.4361596292446507e-02
2123 -9.4898348327743902e-03 -5.4020815656835646e-03 -3.0610557282373806e-03
2211 2.7437033921941342e-02 2.2651373986667965e-02 -3.2372356776930802e-03
1259 -6.1899922922809747e-03 1.7279137475961072e-03 -5.8615721453734379e-03
1180 2.1092135791190444e-03 6.0792176485217151e-03 -9.9159249553458523e-03
1181 -9.1138512500624352e-03 1.8172159472333967e-02 -1.8199874849950184e-02
1182 -1.8030288286996652e-03 -9.2537561689595080e-03 -8.7521719471971501e-03
16 -2.9756201902144796e-03 2.1051149942648757e-03 -1.7220726782536469e-03
17 5.1770395645858785e-03 -4.7017322292349272e-03 -5.7853848428532058e-03
18 -2.4166687581165624e-03 -1.2416575461175638e-02 7.0828768317233977e-03
2663 3.5242604513287140e-03 4.7269159331859304e-03 1.2116165611002880e-02
2662 3.5283133540139520e-04 6.1880423041538110e-03 -4.2850022085305243e-04
1869 1.3277483847915997e-03 -1.9491705592101730e-03 -7.9497238567734375e-03
2664 1.0122771677045297e-02 6.7325227542564918e-03 -6.0199793653448333e-03
1258 3.7652936051914858e-03 -2.4799594784413342e-03 8.4017062422725918e-04
2027 1.8610323220479619e-02 -6.0620642205758456e-03 4.2671232078005078e-02
1735 3.6209193132594412e-03 -1.7993100420770031e-03 1.1042642086345453e-05
590 -3.8004552655355570e-03 9.0728725961942442e-03 -1.2119565732599437e-02
708 -1.3710079916613093e-02 -4.3621426389989035e-03 -1.6548743475395876e-03
1737 1.0405544987159118e-02 2.4907224886950546e-02 1.2901935758409176e-02
367 -2.9520616853918767e-03 -2.1821765915043911e-03 2.0495733944077841e-03
248 3.7327869534812619e-03 4.6147333769226773e-03 -1.0301463651377770e-02
591 -3.0570124264544814e-02 -5.4631553187139796e-03 1.1897743877604427e-02
706 2.3776364167057443e-06 -2.1882139530894156e-03 -7.4877991739645622e-03
1766 2.1044730664930827e-03 1.2347417793058663e-03 -1.0941321313385622e-02
1081 1.5026372352151516e-03 -6.8503628095439384e-04 -3.0062561988574103e-03
274 -8.6431238351673319e-03 -1.4447644088178666e-03 3.2411257656505496e-03
736 1.0523545111076197e-03 5.7215957099084329e-04 2.9172535311317821e-03
1229 -6.8737525478066138e-03 1.0715717817570594e-02 -2.4079842940842925e-02
1082 2.4053426867300269e-02 2.4153528189064452e-02 1.0606025729660544e-02
1083 2.1712500386546650e-03 -2.1938762647468239e-02 1.4674715175975140e-02
275 -1.2587426182075326e-02 2.8050236763187907e-03 -3.5854611068757646e-03
738 1.6040942269925219e-03 4.6242768004576304e-04 5.3509021063141019e-03
1765 3.2843125022142218e-03 -7.2922611459835694e-03 -5.6029301440617442e-03
2303 -4.1464711087365403e-03 8.1935703437188406e-03 1.4324586589979454e-02
1445 -1.4110331884788045e-02 -4.4413536503248204e-03 -1.7661508247556047e-03
2563 1.8539776088346911e-03 3.0318885082657567e-03 -1.7466911498340361e-03
2564 5.0876115908335317e-05 6.6985157241414885e-03 -1.1500019659075118e-02
1550 2.7890444424053854e-03 1.3217692490295089e-02 -2.4374581779407012e-03
276 -1.1227109786710300e-02 -7.0948512430856034e-04 9.0611940356625301e-03
2565 3.3679624018512467e-03 5.6171871868200560e-03 -1.2933364402153433e-02
1446 2.4931355323162983e-03 -7.1467475497273116e-03 -6.6384094366999172e-03
392 -3.7356158816036350e-02 2.5863143889634274e-02 -2.5673468174933958e-03
737 2.5811652100756898e-03 -4.1292101101431317e-04 1.2224591840798663e-02
993 6.1383495728924492e-03 -2.0369899048025410e-02 -8.1906110430929966e-03
991 -1.0032410404740573e-03 2.1219867743712192e-03 -1.1561088893277810e-03
992 1.2215195673195131e-03 -1.1768922971511038e-02 -1.6399659203298226e-02
682 -1.2346754810331757e-03 2.9410039506733968e-04 -6.3445707227318033e-04
1444 1.8373689593442423e-03 7.3825063688887278e-04 -4.1612223643366778e-04
391 -4.3632073339394360e-03 -7.2724890696269570e-03 3.2620128126018598e-03
684 1.2690297018873538e-02 4.9105151207978249e-04 8.2648299287760088e-05
1228 -3.1751725300212994e-03 -4.7285843410124744e-03 -6.8415102845428436e-03
2333 -1.4497384613306628e-02 5.8483598554888785e-03 -1.2247349743584796e-02
443 5.8118718744099643e-03 -3.6472920195377719e-03 -2.9806436056858008e-03
2352 -1.2253932424743858e-03 -2.7628987412932249e-03 4.8389694726347432e-03
442 -2.0338913643243380e-03 3.4525036617411134e-04 -1.9981804795446362e-03
1833 -1.2197330758299388e-02 -2.9480655340026531e-05 -5.3713043714413156e-03
1285 -2.3827722240995312e-04 3.1044533944318041e-03 3.3881478463416849e-03
1704 -7.1979116390802232e-03 9.8110098424456088e-03 9.7589332107987682e-03
984 -7.2704044506605786e-03 1.6103502687258821e-02 -6.9616008469793097e-03
982 -1.6448076928675054e-03 -2.8090149887588759e-03 -2.8216986971185401e-03
2859 -6.7407021557573709e-03 -5.6579718256002049e-03 7.3942316769457610e-03
983 -2.0823103623976240e-03 -3.6007677013581756e-02 1.3798426438521664e-02
1702 8.9837611112157385e-04 7.1281686754713696e-03 3.1368504645164115e-03
68 1.6632331501997687e-02 -1.3664919688613884e-02 6.0489354136468278e-03
1286 1.3347062501367324e-02 6.1217754788196899e-03 2.2056709113067651e-03
1703 7.9172996796839593e-03 1.9562346995099091e-02 9.1069960435819056e-05
1978 1.9326763760729075e-03 -2.3866024912631897e-03 9.3755227139608879e-04
1979 1.0381821428194367e-02 -4.0772680037526304e-03 -2.0269276750186822e-02
67 9.6832272370186556e-03 5.7077703610359598e-03 3.5795239954665775e-03
69 -4.1227706995072780e-03 2.2875388056604680e-03 -1.0706507936603726e-02
444 -1.3319818840740304e-03 4.8639747528931012e-03 1.3510095891698843e-03
1832 1.5265801853317209e-02 -1.7232449330632449e-02 -4.0817532279859431e-03
1980 -1.7737586070246020e-02 1.9638119275221023e-03 3.5704356619333539e-03
441 -8.8213162063473169e-03 -2.4076658747247261e-03 5.2270770337625033e-03
1831 5.2632488492229323e-03 2.7804410298481403e-03 1.0607705097267705e-03
2205 -7.6559106345087400e-03 7.7294934441793544e-03 -1.3398807356398248e-02
977 1.1340431069777701e-02 1.2078257632452896e-02 1.5707844577826018e-02
266 1.6768051181757705e-02 -3.2441555823662506e-03 -2.5820813907165948e-02
668 3.7373854848966022e-03 6.8419946912738555e-03 -1.3823469260405853e-02
667 -2.9125923512601545e-03 -2.4046242805140239e-04 -1.5841620740216398e-03
669 1.7582757824900130e-03 5.0105730698507892e-03 -1.0338098469144593e-02
3217 -4.8605442810314953e-04 -2.9872102389811722e-03 -2.4942903440042649e-03
3218 -2.3714759814013053e-03 1.3903054110438254e-03 -5.6405750277584502e-03
3219 5.8110836657605377e-03 4.0796119603719733e-03 2.1525204790433959e-03
3221 4.2544492522083825e-05 -2.3731042565092158e-03 -5.3383396278436669e-03
3222 3.4517652287568506e-03 -6.4860851653641494e-03 2.0693634182645110e-03
3223 1.6589137469666631e-03 6.4319938745841200e-03 2.8453637677068925e-03
3220 -1.2797276964004005e-03 -3.5932404720977196e-03 2.6922724558039882e-03
3224 -1.3132702328464130e-03 6.2197548514281832e-03 -2.8335208737619690e-03
3225 5.1277429174735392e-03 3.7584235241689954e-03 6.0960121813096318e-03
3226 -2.8191596104502102e-03 1.7612476797516412e-04 -4.2239403234129395e-03
3227 5.6814063815396904e-03 -1.2048277630925591e-03 -4.6237033111695223e-03
3228 -3.7888520538372924e-03 2.3984697886653191e-03 -1.5208296925419021e-03
1709 3.0352369889328637e-03 -8.9933401155730952e-03 -1.5901134419457466e-02
1708 -4.4057764800586492e-03 -2.1152048700509669e-03 -5.2712763140394065e-03
2525 -6.8525257157159413e-03 -2.8185997420148107e-04 1.9622585927598824e-04
2524 1.6850746610790009e-03 7.4732314209722913e-05 -1.1941148346103644e-03
2526 5.9526842400888175e-03 9.5951373670246573e-03 6.1232258288796467e-03
2523 -6.5796258179270260e-03 9.8459771337187155e-03 1.6325721022330243e-02
249 2.8366865217947599e-02 -1.8487890150960841e-02 1.5872818096992116e-02
233 1.1124726875253213e-02 3.0277502258735044e-03 -1.7591283632185609e-03
2012 1.1906885519002988e-03 5.5395621885759843e-03 4.6054528626620261e-04
1260 -7.3103465436064599e-03 -6.8511199824411563e-03 3.6769799974777778e-03
2013 -6.8562514999218355e-03 1.2308820647917161e-04 1.6110802454416102e-02
2915 -7.7933564726331474e-03 -9.9390361877102940e-04 4.3149125714479833e-03
2011 2.9434006915334213e-03 3.5293561154184855e-03 -1.1371325897653682e-03
381 5.1397167397107379e-03 4.9030755944060485e-03 -1.5938596032583258e-02
1986 -4.4242933790491932e-03 6.3028241279734125e-03 1.7475195748443333e-04
1984 -9.0647262634046249e-03 -5.7205798395209596e-03 2.3902554810365799e-03
1985 4.5266648967700806e-03 -6.8394801266611132e-03 -3.1336576589022933e-02
247 -2.6148869358167642e-03 -3.2982872013175828e-03 -5.7528702053977546e-03
2914 2.3601363663703131e-03 3.5183141628898807e-03 2.4892745817108393e-03
2916 -2.8501731597372049e-03 6.2240305637835348e-03 3.3587243711743380e-04
926 1.0117923461273395e-02 -3.0251410161335123e-03 5.5357019372921125e-04
379 2.6803777476601823e-03 -2.0099691209006323e-03 -3.2880556033265296e-03
925 -2.4587387372777122e-03 2.8010230925355119e-03 -2.7206853095429174e-03
234 2.9468383430243019e-03 -1.4949381198467135e-02 -7.4674324894296864e-03
232 3.4663731708285280e-03 -5.1508328902548648e-03 -1.8687137621842961e-03
2751 8.5050649955895306e-03 1.6793979535101918e-02 -3.3915512301030382e-04
1551 2.6221865764073534e-02 2.1688672341275712e-03 2.7165594475289260e-04
1334 6.5223225922373109e-03 7.4621123629354325e-03 3.2262624001423122e-03
1918 -4.1610760156423499e-03 3.5490406604139798e-03 5.9775141712627832e-03
2540 -8.0309649000189498e-03 -2.2631212604386504e-02 -2.0344904435317494e-02
273 -6.1509766350430614e-03 6.9860854423607036e-04 1.5765308910235087e-02
2539 -3.0647126247286254e-03 -2.1547125424708955e-03 -3.2375658052418849e-03
2541 2.4787656834405196e-02 -7.3755403198842266e-03 4.4879672634737713e-03
537 -1.7012932640291793e-02 1.1120209533329374e-02 -5.2897163971437396e-04
81 2.1630314483417562e-03 1.3917573078300583e-03 -1.4327240495013475e-03
132 -3.7095028418208677e-03 -2.9523727477207455e-03 3.9477947900784280e-02
2373 1.9920644595234193e-03 1.0384005600998197e-02 -6.9790534928627843e-03
2372 -1.9721777637503692e-03 6.9509978371963144e-03 -4.7265404393304353e-03
2371 -8.4185855498253824e-03 -1.7055515627190266e-03 -1.6681742155666107e-03
130 -5.3832514766715446e-03 1.3262620291084903e-03 1.6724044416725160e-03
80 -3.0111008083748242e-03 7.3113710388940552e-03 1.4376970786671439e-03
79 -2.1111335961957380e-03 5.5202485157733287e-03 -2.2109414343443237e-03
131 4.6185312509762063e-03 -4.9936535303936984e-03 8.5161055826236572e-03
1549 3.1429411324325391e-03 6.7024269267183540e-03 -5.6220294046949474e-04
1230 1.0923164329257457e-02 1.8066676066955008e-02 2.6006409054294646e-02
723 -1.2600383684789303e-02 -1.1134349494827833e-02 -1.1368269657801805e-03
1452 8.5789821151991148e-03 -1.9024528288334366e-03 5.6919371945489995e-03
722 1.6893909555198643e-02 3.8421390225028343e-02 2.1376445689127915e-02
272 -1.2478805784176532e-02 1.0456847323676461e-02 -4.7254409260836750e-03
1920 -2.6969909976067446e-02 1.8246945275094930e-02 3.7036481239215821e-03
1919 4.8028222053442494e-03 1.3573120970442677e-02 -1.7947907497783817e-02
271 -4.6506214277160238e-03 4.2617903598104875e-03 3.9956284051348000e-03
2467 -4.1678570888611256e-03 1.0013930278768852e-03 5.1637631660122960e-03
2643 -1.9729866046015315e-03 7.4401690440475060e-03 -1.8184501370162819e-02
1432 -1.0464709266107427e-02 -9.2306638013524307e-03 -8.1549545792927950e-03
2641 4.2606486537305832e-03 -4.1968281407549050e-04 -3.5397656272732137e-03
1005 5.1979718183189287e-04 -7.1663834321530912e-03 6.4770637902064896e-03
1023 9.5913802383132945e-03 -1.5256740631420186e-03 -5.1358153573610081e-03
2429 -1.0383283487699620e-02 -1.9977064478117416e-02 3.9864689255044994e-03
1004 6.7039117494223583e-03 2.1087576699171662e-03 -2.3763250802109004e-02
1987 1.2642795488225758e-03 3.3557249058307061e-03 -5.4957562894219813e-03
1022 -1.2047442634256731e-02 2.0509609771485911e-02 -6.3026255105987014e-03
881 5.7548467433235998e-03 4.7625069165563565e-03 1.4386626816180914e-02
880 -3.0797631985366163e-04 4.8659099684761646e-03 3.3315326871084547e-03
2483 5.2703781044865896e-03 1.4029748809548133e-02 1.2346016202693419e-02
2469 -9.1257507091938271e-03 -2.5371867604659318e-03 2.2502504359968698e-03
1988 -3.9051471165977669e-03 -6.9223133279744890e-03 -2.5894835302612859e-03
439 -2.8692285971564039e-03 -1.5245469710476996e-03 5.4496819483654162e-03
1512 -1.0781643432526525e-02 -9.1385233198870448e-03 -4.9743792756431196e-03
1510 1.4531621054050107e-03 -4.4794409784873587e-04 -5.4593196229657916e-03
1021 -3.4028679533733446e-03 7.3100827117007624e-03 4.7661133723717998e-03
1511 -6.0276815856109139e-04 -6.1577833826316278e-03 -5.6168721045621118e-03
1989 2.2287807720917283e-03 -6.0994846108445456e-03 3.8084370571834637e-03
1003 2.2486207560747881e-03 -4.6427098110560592e-03 4.1067827620367859e-03
882 2.7907548223949615e-03 8.9189143520298809e-03 3.2038872245965500e-03
1068 9.9178740461251837e-03 -5.4240916394656018e-03 1.5115813082025462e-02
2468 -7.4041053682053761e-03 1.1273333955392193e-03 4.5829412363677397e-03
2642 3.6670799925273825e-03 -9.3524185189347731e-03 3.1936742955309219e-03
2749 6.7162266361064553e-03 7.3291359402068732e-04 -9.7342606822390428e-04
2750 6.3965022691038279e-03 -2.1209330149681255e-03 3.1466067239728380e-03
2695 1.7816640835314552e-04 4.2747102670462214e-04 1.0767725442170106e-03
2697 2.8645781618787707e-02 -2.5116785170988361e-04 7.8330583308915420e-03
1434 -5.8203869659984161e-03 -1.1053798293454074e-02 -8.1997692655473298e-03
2828 1.2607201652884009e-02 1.0608869533616490e-03 -3.1539709576335374e-03
1734 -3.9065047339404118e-03 -1.6015533510284712e-02 -1.3420324856344569e-03
2827 -5.9562351924355255e-04 7.1658554131738940e-04 2.1359671366514826e-03
440 -2.1983502110855545e-02 5.7098992219919544e-03 -7.0290291752858666e-03
954 2.1415842585717588e-03 -1.1479576216586196e-03 -2.9123412652305122e-03
2484 -5.5893803789704311e-03 2.3667708921918672e-02 1.0327101127681806e-02
2482 1.1303272101041665e-04 1.5439030018999842e-03 3.1858110815610225e-03
952 -6.2381446594706753e-03 1.3510621290966729e-03 2.1989755215785778e-03
953 -3.0486929995374853e-03 -1.4495203633758192e-02 5.7130615496652805e-03
1732 5.8513372408704766e-05 -4.0083432275305709e-03 -4.9677737949899142e-03
1077 -5.9835977852695857e-03 2.9850619749461761e-03 -1.1191003533079107e-02
1733 9.4575414707907136e-03 -1.6250429646302647e-02 -3.6943198353863753e-03
1075 -6.2887041554687091e-03 2.6021215223339385e-03 1.7576774792927644e-03
1076 4.2695488691212261e-03 -1.2393867934491995e-02 -8.6637751853556604e-04
3229 5.3838097589975382e-03 -9.1354156451723192e-04 -4.2650003998753053e-03
3230 -4.1436086294560784e-03 2.3859871110526575e-03 2.1013771120655255e-03
3231 6.1666418590590839e-03 4.2262223916607645e-03 -1.4181700074172032e-03
3232 -3.2407390552329830e-03 -2.4808303854983896e-03 -1.8335493036154315e-03
3233 4.9375789214625831e-03 -4.3879764127126644e-03 -2.4354308307608348e-03
3234 -1.8052056193666217e-04 -3.2638487437489905e-03 3.2349059468132573e-03
3235 -3.5602157012236688e-03 3.5553982346727656e-03 -4.7915779219349077e-03
3236 2.5386099005530681e-03 -1.0893471517074069e-03 2.1531466834601720e-03
3237 -4.0937706536825430e-03 -3.2277123557088183e-04 8.4843921258376167e-04
3238 -3.5542236497514692e-03 -2.4454773923735127e-03 5.4431401844945836e-03
3239 2.0788555209545574e-03 -5.0967234314151762e-03 -2.9226672592532902e-03
3240 7.7442804917456955e-04 1.4876838605960778e-04 2.8504694731851681e-03
2521 4.2063307706543852e-03 2.8123883009711992e-03 8.7818743617702495e-04
2810 -2.7896565602009483e-03 6.9746021076637077e-03 -4.1309115436048279e-03
2522 -3.0747290782507227e-03 -1.0940656970000438e-02 5.8128405999852218e-03
999 -1.2159418976100293e-02 -8.9731676921530994e-03 1.5028076156494989e-03
1154 -4.9027199574563068e-03 5.4565077362380473e-04 7.0308775187386539e-04
1153 6.7481573453691494e-03 -4.3530306118549529e-03 -1.7838363497582450e-03
1007 -2.1318937609930158e-02 9.1571534388325835e-04 -9.4468009561353566e-03
251 2.0576429886074873e-02 -6.8825688099931675e-03 -2.0418295699172148e-04
250 8.7050864240102461e-03 1.8754040174084532e-03 1.9241679504200095e-03
2133 1.7642725988608547e-03 8.3766143246197747e-03 7.9541117578639259e-03
910 5.5104439497489742e-03 4.6771778852318481e-03 4.2297315262069431e-03
252 3.5485007904854484e-03 1.1699670565241168e-03 1.4181635835000867e-02
911 -8.1203441398315715e-03 1.4690725489313083e-03 -3.3850770280034505e-02
2131 3.0740355972288199e-03 -2.3080957969053204e-03 -3.1439681056694016e-03
1817 -4.1983515140843987e-03 -7.2733838261114427e-04 2.7758168140050751e-03
1818 -2.7319602502437709e-03 1.6456857268920832e-03 3.7187196484676703e-03
1816 -1.8702604893932409e-03 -2.6595212961963745e-03 2.3320641550329531e-04
1878 -1.5910953112021890e-02 -7.9795190444167160e-03 1.9367167269000951e-02
2084 -1.3233632754466617e-03 -1.4271967852056556e-03 -7.3866281086001186e-03
1155 -1.8954001757411777e-02 1.4846295319391439e-02 -8.2582065311224313e-03
1008 1.9262565096151631e-02 -1.1799002886733483e-02 3.9141824409437906e-03
1877 2.5665370087632425e-02 1.4509980084820077e-02 6.3205198041300951e-03
1876 -4.3042159778098720e-04 5.5645188260359439e-04 -2.7771038497226212e-03
2985 5.1389499980923868e-03 3.8287013613267668e-02 -8.1688195165071226e-03
1493 -1.4589449103373460e-04 4.4052071001865704e-03 6.6679395630531175e-03
2088 -1.2087812106160063e-02 -1.6562063678866538e-02 -9.0375880270884487e-03
2086 2.1720811742622290e-03 1.1171949555917535e-03 -5.7825832897114571e-03
845 -2.7648844103078181e-03 -5.0305982498970872e-03 -8.3135705168263917e-03
844 -1.6072013123071972e-03 4.7548451523127429e-03 -1.4198673929514693e-03
899 -1.3288684212164958e-02 1.0555530524523524e-02 -6.4202504589850979e-03
487 7.2718073192106830e-03 6.1440834446855564e-03 -5.9934362306352310e-03
2132 -1.1116510304569492e-02 -1.1491190867150013e-02 -3.0964176799635132e-03
1006 -6.8135667727212603e-03 2.9340060306956843e-04 -3.2805925148744518e-03
1494 1.3981314291911004e-02 5.1652997080204443e-03 4.0719504196142240e-03
898 -3.9869796734642166e-03 -3.3701573381907310e-03 2.3369585751390554e-03
920 3.1231043998485391e-03 -4.6683179080714765e-03 1.1915139065431487e-02
2274 1.4033720334947559e-02 -2.9540410922375394e-03 -4.2190095366471140e-03
1492 4.7357482254940441e-03 1.5772877964757503e-03 8.5364154975888472e-03
1373 1.9282430561683231e-02 -2.3465080763842940e-02 -1.0952222786116289e-02
535 -3.9200571482552070e-03 1.5194918986229043e-04 2.2020910137431852e-03
988 3.0669533596979649e-03 4.8397899816750707e-04 -2.7418346731711896e-03
2095 4.4368658977674799e-04 -2.7773589651152704e-03 -2.2123865915971447e-03
2087 1.2743909668360563e-03 -4.7961010416602753e-04 -6.1132531343483934e-03
489 1.2583329494756051e-02 -1.4859515028231515e-02 1.5599312435204080e-02
1450 -2.5026300435028142e-03 3.0966157344887407e-03 -6.1543967578424558e-03
478 -6.9754632249199727e-03 -3.0472795054294274e-03 9.1078633875704403e-04
479 -3.9281967431758234e-02 -2.3360473894012888e-02 -2.4866080462914624e-03
480 1.3279350720601145e-02 -5.3185883392753127e-03 3.2086697630138480e-02
709 -2.2610868055097564e-03 -1.3415199715943075e-02 2.5738903829870892e-03
2097 1.0429291362583720e-02 -2.6402782191501735e-03 -1.3651414594730698e-02
2417 -1.3573261824154611e-02 6.8023928808464357e-03 2.0652910953574456e-02
711 3.3013063294991315e-03 -3.9705860832709699e-03 6.6117856520419901e-03
1374 2.0885052320773517e-02 1.3974322667955298e-02 -7.6701962163209288e-03
710 -9.4874547010678767e-03 -1.0969146143950767e-02 -8.7293339424691935e-03
2416 -4.6182566528296474e-03 2.1444288543632879e-03 7.3582952342803097e-04
1451 1.9601287203549436e-02 1.7471517781970931e-02 -1.5526570033072519e-02
2418 -1.1333833315804689e-04 2.7793312699184143e-03 -1.8248034533756504e-02
536 1.7778293516132103e-02 -3.6075772811686863e-03 1.1759374286788265e-02
1372 2.6550319130386039e-03 -2.8845848941594539e-03 -9.5979379341208464e-04
846 5.1225831297959691e-03 1.3561149811303450e-02 -2.5207950217292089e-03
2984 4.8949635446918979e-03 7.4707636575256321e-03 4.1988752479628095e-03
2272 2.2820005173282125e-04 -5.8222104300264784e-04 -2.6692632656035386e-03
1970 4.5165702108588175e-03 2.7069566329277249e-03 1.3802530278056602e-03
2273 -2.6366481675856738e-03 7.0830722535186333e-03 -1.3097236821459890e-02
990 -8.2676447124418167e-03 1.9109316113815958e-02 -2.5492651366108097e-03
1682 4.4604375230327996e-03 -2.7992418921884261e-02 -1.4411550769222358e-02
1790 2.5216684543189191e-02 -1.7399349702277710e-02 -3.1292670315719148e-04
1267 2.2978999176114538e-03 -1.6641658485099279e-03 1.9267725979189864e-04
302 1.5450736639753668e-03 -4.6773068420443240e-03 6.1039653433074782e-03
1789 -2.9067014944888789e-03 -1.5118190874178056e-03 -2.1496829628725176e-04
819 1.1398361123173537e-03 1.4545786185231233e-03 -1.0989887861146002e-02
1065 4.7875896109908614e-04 5.0364791855539550e-03 -2.3190968261001263e-03
2805 -6.6421900812433272e-03 2.3861010235642883e-04 1.6816897952202915e-02
494 1.5745485567297185e-02 1.4438033550718987e-02 9.6958674166326003e-03
301 4.5700451861298225e-03 -5.1382870638914478e-03 -4.2058255797344270e-03
1063 1.0405167222027178e-04 -3.9581354213202372e-03 2.8994750900017568e-03
1268 -5.3031726022962468e-03 2.3420819474667679e-02 7.9359359404467967e-03
1067 6.2778167408592597e-03 2.8217273217252441e-03 3.3725507652965477e-03
1066 3.7662602999922329e-03 1.1798178039698925e-03 1.0687456248760607e-03
2925 -2.9434744827566278e-03 6.8153745578271108e-03 -1.0488149569990104e-02
303 -6.9099818871838411e-03 -1.0297073835229679e-02 -1.2560943366226752e-02
655 3.6018950542465542e-03 9.0710661531172871e-03 3.1358388700136685e-03
1641 3.4313568462036462e-03 4.7979045709159018e-03 -1.7336521492082664e-03
1639 -6.3804397097634818e-04 8.8204360178297473e-03 8.9134690365917191e-04
657 1.6337426495963124e-03 1.5340271374003180e-02 -1.6134866159397351e-03
1791 -9.9943386435668736e-03 6.6661629555589338e-03 -3.7373194368141088e-04
1640 1.5952673518985775e-02 -4.6851548992599769e-04 8.7116112877938905e-03
474 -4.1202763614085836e-03 5.2341279671996085e-04 7.5470714912104489e-03
1851 -2.5318990674482306e-02 -1.1120234392883331e-03 2.8549475448375883e-03
472 5.3491975854062625e-03 5.9498118315224743e-03 1.9793732695791099e-03
656 1.1891438403726888e-02 4.6941784465893274e-03 -1.0355798522038674e-03
2923 -1.8338828316024526e-04 4.2094315120470589e-03 -2.1507681675870366e-03
473 1.9471931169225812e-02 -5.6042492431977627e-03 5.6304103882366830e-03
1849 -6.3976351771611352e-03 2.2064810201784129e-03 3.3066856408015392e-03
1850 -4.7913549826008464e-03 -1.7690318946290138e-03 9.6506815588785107e-03
817 -1.0147089911380373e-03 -2.4695634062720857e-04 1.5904811634941849e-03
2001 3.8628815076535792e-03 5.7461935420300564e-04 -6.2375921859332412e-03
2696 -9.1189749951478237e-03 4.4287449121022393e-03 2.2619592461568083e-02
1269 9.5457149064427892e-03 -1.9900752084160929e-02 -1.5352843998354092e-03
818 7.5995359621641037e-03 -9.3421524756299203e-03 4.1184405711980204e-03
967 5.5123620945834026e-03 8.3259470084463166e-04 -4.3351430772478616e-04
2924 -1.5473015746781761e-02 5.4176590528965257e-03 -1.5733482990684248e-03
1064 -7.7256784646226187e-03 -4.0247727831363616e-03 5.7354609414290159e-03
968 3.9665165575660149e-03 7.0548652225959968e-03 2.3412262097330550e-02
2261 1.3374331208111146e-02 1.8062760410463927e-02 -1.5479813576238600e-02
311 1.5205371408160110e-02 1.7698152108473607e-02 -2.6804188077061992e-03
3241 4.4663582002870380e-03 -1.0302467270650153e-03 -4.9455606047717092e-03
3242 2.2518139299506504e-03 -6.0127520625318578e-03 -5.8015495325716747e-03
3243 -5.2779795422778575e-03 -2.0399615191689915e-03 4.8928596230633026e-03
3244 -2.7947515577144543e-03 -3.0962111933778903e-03 6.2618305357057718e-03
3245 -3.6901405926225740e-03 -5.8905753304277046e-03 -6.5309439240276738e-03
3246 -5.9804344976100302e-03 -3.4857736026813980e-03 -5.1698935093504967e-03
3247 -6.6090269348082400e-03 -4.0196782822665162e-03 -1.5872662003448409e-03
3248 -4.1057479117766965e-03 -1.5446391734265229e-03 6.4513163325255309e-03
3249 6.3964261278422890e-03 -2.0011432802334575e-03 3.7166325006754127e-03
3250 -3.7490030935002777e-03 5.2069166709254036e-03 -5.4739076945363356e-03
3251 5.8702292216932109e-03 -2.2605737321011602e-03 5.2110409028844062e-03
3252 -3.9248782099587454e-03 -2.8821752479611350e-03 2.1256058446319421e-03
2809 4.3270668850472422e-03 7.6548851773554161e-03 1.8744339411486193e-03
2740 -8.8096821570506252e-03 -2.2052281796776166e-03 -8.8515382596008382e-04
2741 -2.1586661262660893e-02 -3.6965631685689445e-04 -2.1806532401797030e-02
663 -1.2859409930869156e-03 7.7242091025526288e-03 -7.2751748095353699e-04
2811 7.1171117799664072e-03 6.5860977711313905e-03 1.2204577317276982e-02
53 3.7200438363973743e-04 -3.6599177354805740e-03 4.9121937246791635e-03
921 -3.1853149896015009e-03 4.7669469012495127e-03 -2.5905611380510085e-03
2271 -1.5033544641319323e-02 -1.3824428685097470e-02 1.6302418575676020e-02
337 -1.6453295757449561e-03 -7.9962161090195299e-03 -6.5111032212329754e-03
339 -7.1093130309914663e-04 6.4837465359675744e-03 -6.2227831666132292e-03
338 -7.5798582948026130e-03 -1.6217097383472032e-02 1.9932894998164290e-02
2742 -7.7397665735695793e-03 1.3147052281088910e-02 -3.0438635567724016e-02
1034 -4.0232489852582700e-03 2.4566006867562516e-02 -5.4003742687601282e-03
2270 -3.0150787468371082e-03 -1.8582067206710410e-02 -9.7367318568900331e-03
2269 -6.9960683482986584e-03 -3.9100851149233822e-03 2.5256378466783995e-03
1035 1.1434814792170015e-02 1.3636837006737365e-02 3.8424616097959652e-03
2847 -1.0344196782851084e-02 9.1921770797993452e-03 -9.0224681742524949e-03
2083 3.6065706529940299e-03 -1.7917438066111715e-04 9.8737126092082253e-03
1086 -1.0545966530775682e-02 -5.6425996202138741e-03 1.2271542623549233e-02
2085 -2.3832148441670024e-04 -1.0840257720259735e-02 9.3553899394341923e-03
127 3.0833745352316804e-03 -1.8750908065968059e-03 -4.0314618776773259e-03
2845 2.5528547487549658e-03 -1.9807557719855708e-03 6.7786479807596179e-04
919 -3.0667428706073695e-03 -1.6179190640123865e-03 -1.5689561903545128e-03
2814 -1.2407582802086804e-02 1.0890987506968640e-02 1.1112491536684691e-03
2846 -1.0796260034701370e-02 -5.2266251208695413e-04 -5.5313027846729465e-03
828 8.6697080380975552e-04 3.4552153546708714e-03 -3.0339532446655585e-03
662 3.4055978269201172e-03 -5.7189966376200397e-03 -3.3552643769713120e-03
128 -1.5283643006788795e-03 2.2979002702488188e-03 -2.0285163363057725e-02
1084 1.7630680335900888e-03 9.9069244088292765e-04 1.8113622650962435e-03
257 1.7020450546874462e-02 -1.6835641729090862e-02 1.2797901450233266e-02
256 -3.6191053434736775e-03 3.5932600160330677e-03 -5.4311578166403437e-03
258 1.0072203258805975e-02 -9.1360407633179676e-03 -1.7342842531112457e-02
2812 3.1043357150849801e-03 5.9456209013380446e-03 -6.4079837686780209e-04
1085 -4.9534080682969205e-03 -8.6655648126438087e-03 -2.3405978022966369e-02
429 3.2617864938880629e-03 1.2175710182385183e-03 4.7098008655003685e-03
1471 -1.5003690273335218e-03 -3.0790100285830172e-04 5.5657393758829854e-03
1934 4.9842228814247031e-03 2.5136173148878747e-02 -2.5730345557588340e-03
1652 2.1000198896013187e-03 -1.2074943345032925e-02 4.5830111352062703e-03
2190 8.6766757397534764e-04 -3.6264770751412200e-03 2.0873963667462581e-02
1586 -5.7083015068465220e-03 3.1512633432407249e-04 2.1269530132933354e-02
1999 5.0602746807447956e-03 4.1800007891775147e-03 -4.2027621953816229e-03
1969 4.7518426461465322e-03 3.6786235783526312e-03 2.5718804849780836e-03
1473 -5.3259131993647580e-03 1.8791380577116846e-03 -1.0343901506831935e-02
101 1.1345010593365637e-03 7.5870210194824740e-03 -1.2131518107332182e-02
1935 1.8285183313530476e-02 -6.8736229285698202e-03 1.2693143193491520e-02
21 5.9275167169093304e-03 -6.6911595283236473e-03 1.3795977396930332e-02
1351 5.8659552748346420e-03 -4.8063133170100688e-03 -5.8112241664539238e-03
102 -3.5811071803783781e-03 -1.4781555815364413e-03 -3.7519314129789596e-03
11 -5.9643792424609997e-03 1.6395492777436919e-03 2.7858487728710146e-03
1587 5.6432194523834810e-03 3.4577584270671577e-03 7.9280883228762949e-03
1585 1.4353867418734974e-03 -1.4781043021363904e-03 8.4440593437207102e-03
100 3.5076216555841666e-03 2.1316100768398018e-03 -6.1626830559735534e-03
1352 -1.0933469530094862e-02 -1.6673297339402982e-02 -9.5606274788980414e-03
10 -3.6172318707352121e-03 3.0432335256925761e-03 -6.7248329070566330e-04
1353 1.6738496910853138e-02 1.0396651812772354e-03 -1.6803511255960332e-03
1681 2.2156945082804245e-03 -4.7470610053274514e-04 3.1700554931044598e-03
20 1.0655933146965696e-02 1.2254230896772345e-02 -2.9692385345329113e-03
19 4.0199583747339987e-03 9.1554752995666152e-04 -8.8778520740968540e-03
12 -1.6963543851687718e-02 -4.9857139862798398e-04 3.2461349633951746e-02
2000 8.9305363724624283e-03 -2.5600203854528494e-03 -1.5030198091130433e-02
1933 2.4201615648292234e-03 1.3722766997715280e-03 -7.1390404863510670e-04
427 3.4260842456622330e-03 2.3573776606201687e-03 6.5040160588400887e-03
428 -5.3967622065927146e-03 3.8736782279217420e-03 -7.8137357463171648e-03
1971 1.5075129360253736e-02 4.5687465585118369e-03 6.3362436119722577e-03
1653 8.3827044239814155e-03 -6.7213383829507539e-04 1.2232547625082347e-02
2528 -1.5570935819719169e-03 1.4562899589603724e-03 -4.7008833386775733e-03
2529 -1.6863612356671893e-02 -4.8259331230460101e-03 -1.4640899023691032e-02
1015 8.2470498333944101e-03 -6.4782448683910481e-04 1.5596086266353637e-03
1017 -1.9475087784525773e-03 2.8948167563900267e-03 1.3726923974396463e-02
1088 -9.2112730544824887e-03 2.1486077982812854e-04 -3.4751943456225328e-03
2146 -4.3903017547312828e-03 3.8897829137970858e-03 7.0992093284745494e-04
58 2.2624813788024154e-03 6.7230307011639258e-04 -2.9801846331500887e-03
1651 2.9341434627784741e-04 -1.0225874882056395e-03 5.6453746802900286e-04
1453 9.1981900990778021e-04 -7.0573351548151499e-03 1.0679979319103365e-04
2492 -7.7623180852593376e-04 1.9949166326556876e-02 -1.0726770744149086e-02
2493 1.5584305225988162e-02 -7.3796873950881569e-03 -7.3748699584188114e-03
2971 1.0069264996620901e-03 -3.0891607298296165e-03 -4.2249790544987243e-03
1089 -6.1424242216814367e-03 -5.8950835116845617e-03 3.5888278877472374e-03
347 -8.5417700065169144e-03 9.4553207978955583e-03 -4.6878999589029611e-03
2973 1.9054271802854614e-02 3.9028641702463004e-03 1.6804082927464895e-02
346 6.2763939415010654e-03 5.7619593211918410e-03 -5.4341334221315379e-03
1454 -5.3187015309242908e-04 -7.5740695794769032e-03 -1.4138263426682835e-03
2527 1.6631341314007320e-03 4.7659895283946952e-03 3.0545438861133417e-04
2491 -6.1868267661136902e-03 3.2526985269960319e-03 -5.0317784759826454e-03
1455 -7.3826116876842094e-04 5.1448872132072426e-03 1.2032140452868617e-03
59 -1.8794382112250930e-03 2.5278240611721330e-03 -2.4999342458701434e-03
2972 1.5499388863425756e-02 8.4903359129809321e-03 -1.1057479952337534e-02
348 -2.6198008741709555e-03 -4.8190048307863824e-03 -1.1463225972772240e-02
1087 1.2826458367114704e-04 -1.1292549179418893e-03 -3.0089238722510892e-03
2147 -3.6869608295666953e-03 4.3429408351861260e-03 -3.0252258657857837e-03
2561 -1.7447241407472429e-03 6.6787750262609184e-03 -1.6322262578349008e-02
1395 -8.7226730870898685e-03 -1.7961522212028409e-02 -5.2658504195983325e-03
120 -7.6988271318540499e-04 2.8536201210425933e-03 -1.3398710269565135e-03
1394 7.5279468962252925e-03 6.3852175859145039e-03 -1.1038643206069015e-03
118 5.6999901752581225e-04 4.6552277978777357e-03 -4.3485701014419915e-03
119 6.3546333409458091e-03 1.1825077739464255e-02 -1.3114730595448765e-02
312 -3.8085991906322406e-03 -8.9461762993743466e-03 -1.0071890991383925e-02
2260 -4.8423733015601116e-03 -1.0253505488572406e-03 9.2367636901913221e-04
60 -3.9877288118615696e-03 1.2964237182437395e-02 -7.5144867315210225e-03
310 5.3959174307318695e-03 -2.8934656615090836e-03 -3.6974319975027316e-03
969 4.3503285211527369e-03 -1.9779890238130994e-03 -1.1262553352001638e-02
1393 1.5173539937768698e-03 -5.2446742692397309e-04 2.0279412023804849e-03
2262 -2.2743624600199203e-02 2.0394484724540626e-02 1.9460271868780282e-02
3253 -1.1952818838742744e-04 -5.2418919347499834e-03 -1.7948148302428947e-03
3257 6.2540840072763167e-03 6.6137425744306234e-03 2.9424869690012415e-03
3254 2.3535039817883640e-03 -4.2566063510622882e-03 4.6221979707218100e-03
3255 -3.3218812579428867e-03 -5.6944511469025913e-03 -4.9209571570277407e-03
3256 2.2634818716224638e-03 3.3490953550969539e-03 -4.0723215425285970e-03
3258 3.7197819365514212e-03 2.9421038949153208e-03 -1.6449101253284580e-03
3259 7.9502796140107465e-04 -4.3368216406084457e-04 4.1809466872055083e-03
3260 -3.1369152548738712e-03 -4.8787550449963142e-03 5.6790016119533252e-03
3261 4.6196715785111839e-03 1.3462072086684359e-03 1.6593069125239683e-04
3262 -3.2268342326500330e-03 4.4602927354786799e-03 -2.3027755211450980e-03
3263 1.8009496132801429e-03 6.0085533883126778e-03 -4.4127945057754834e-03
3264 6.2103838435019583e-03 5.7714224709512589e-03 -1.6126061775782491e-03
661 2.6376933946240201e-03 2.3453714035097887e-03 2.5502605876189153e-03
715 8.3481753314892408e-05 2.0371134366165373e-03 -6.3617401395248054e-04
716 -4.8329641792357108e-03 3.2065464738618751e-02 -1.9704377047506079e-03
2235 1.0169302600790365e-02 -4.2760498613791621e-03 1.3920600706716720e-02
2813 2.6102095209488446e-02 -7.8091152363717565e-03 -2.1867410239229147e-03
2728 -1.6834822202266733e-03 -1.4114726438468005e-03 -8.3367280331553932e-03
332 -3.4962566206345734e-03 -1.3871196973311543e-02 1.8247860604717729e-03
566 -3.6638952248364384e-03 6.8136215764384167e-03 1.1631879761847144e-03
331 1.2515406946556320e-03 1.1107296792863236e-03 -6.0042103608765858e-03
2233 4.8807566315130892e-03 1.1449844593088376e-03 6.6242005477563891e-03
333 -6.1371313854322778e-04 -9.0300195228401100e-03 -1.7899062137631762e-03
2729 1.1363526429243286e-03 1.7157742016911042e-02 -8.4149577848587620e-03
505 1.3742155250977817e-03 -6.0424561308162063e-05 -1.2529758605789513e-03
506 1.4769738800798902e-03 -5.3019251080909388e-03 1.1720167997566856e-02
507 1.0878001927912941e-02 2.0696074234566087e-02 -3.2266405716098391e-03
565 -3.4787759142357153e-03 -2.2844699979289703e-03 -5.2417849124574475e-03
2698 -3.1689512927399149e-03 9.0474933352645997e-04 3.7949647723004459e-03
2699 -5.7492100599147410e-03 -9.8048130316801142e-03 4.0792202167495416e-03
567 -4.2512646967813005e-03 7.7289987132521136e-03 8.5013638535929464e-04
2100 1.6613891488501747e-03 -1.3447918438892649e-02 -1.7253961029281828e-03
1478 6.0475993535626209e-03 -8.1723401820024810e-03 8.8033238122361898e-03
1477 -2.1392456246191465e-03 -9.8963979797257328e-04 4.4041379532849543e-03
2234 1.6694846494639973e-03 -1.2523951078436015e-02 1.1574861642253510e-02
2181 1.5673591556852873e-03 1.5703603306598554e-03 -2.2370132368294014e-02
2098 1.1877021874970393e-03 -4.1898749965390159e-03 -4.1941644445734456e-04
2730 7.3931208416215489e-03 -9.9622525161076076e-03 -1.7017408703685483e-02
826 -2.2230308869533380e-03 -2.5606905323215718e-03 -2.5915680007615651e-03
1571 -5.6348489753629740e-03 -2.4241588279536763e-04 -3.3929329215034968e-03
206 1.2051107517297205e-03 3.3224311696679154e-03 -1.1726291546605686e-02
2576 -2.6183285410370388e-02 -4.0725094118486543e-02 -4.7163492160489170e-04
2875 1.5955107354415335e-03 -8.1275175628356296e-03 -5.2381146143538736e-03
1931 6.4347564340311260e-03 1.3962609454299770e-03 -9.5108177501586743e-03
1932 -1.2271765554244637e-02 -2.8317759894114082e-03 -6.3679377102143350e-03
1930 -1.3296742134291128e-03 3.7129407368032686e-03 -2.1640839746751182e-03
2062 6.0319046183997882e-03 -9.1848807783331506e-04 -4.4690989579118942e-03
2094 5.8380098934289254e-03 -8.0627583564918479e-04 5.0085323312403151e-03
2064 1.2479128453951089e-02 7.4477246918302868e-03 -7.1613805303757817e-03
1607 1.6351279953438144e-02 1.1199907986489952e-02 2.1547131532263092e-02
2313 -8.5095951095436034e-03 1.3892947034691209e-02 1.6755903871694387e-03
2312 -1.3347118628984089e-02 -4.9990625060062606e-03 1.9308732997409209e-03
649 6.4452478748166205e-03 2.8333703157633321e-03 -1.8605825545996641e-03
650 1.5447173060330907e-02 1.0308494112419101e-02 1.7283120416940499e-02
2092 5.2094522007977871e-03 2.7835580459053765e-03 1.2047125891582044e-03
2877 -2.2887534678299167e-04 3.7586963422158583e-03 4.6760342296877601e-03
2311 -6.0065270338447102e-03 3.3039816973270976e-03 -5.2780203882974277e-03
651 1.6434971569546188e-03 1.3456288542999646e-02 -2.4836501680583097e-02
1608 -1.2496511917197870e-02 -1.5658780149660329e-03 -7.6150402820951294e-03
2876 1.1056866419928160e-02 8.2607264972419207e-03 -1.2554886554904039e-02
1270 -2.6649617641227911e-03 -5.6826207161416314e-03 -2.6516245376201142e-03
1606 -3.5210072656459450e-03 2.3256252872416723e-03 3.6235995979803496e-03
827 -1.0290144591005728e-02 -1.3803408473721112e-02 2.7131097869205908e-03
2063 -9.8832157952157343e-03 2.6408366607591598e-03 4.2408247470935847e-03
290 -1.6598172017660293e-03 1.0127378312552521e-02 -8.3120296512965378e-03
1271 2.2395445175558510e-03 -1.1710664982865986e-02 1.4105983175552582e-02
2415 -2.2244894023517658e-02 3.8741156268305425e-02 -1.2181504317690505e-02
2413 -9.4685643642571148e-04 -1.3541558427397230e-03 9.5982490245634876e-04
2414 1.0036103688465758e-02 -2.8121108104742092e-02 -6.7617316628491332e-04
1272 -2.4439760518280970e-03 -6.0761088482178547e-04 -7.7255550352144410e-03
1030 -7.1817302388049471e-03 1.6727316650729019e-03 -2.8362056156993384e-03
1590 -3.4367472813762526e-02 1.1894454932444185e-02 -1.1585838524406292e-02
1264 -3.5714522277826184e-03 -4.2291572154739814e-03 -2.5326943925963658e-03
1167 -2.6923379017458303e-03 -7.1036028157205717e-04 1.4484167459144055e-02
1158 2.4854684034674425e-02 -1.1869922424842477e-03 -5.6758674581403740e-03
2562 -4.0403672675102201e-03 8.8383579137153705e-03 -1.9524163441191529e-03
1265 -1.7690512715111989e-02 -1.7334396602665511e-03 -5.9270414578722784e-03
1577 -9.2517765514039153e-03 3.1756719771844293e-02 -2.3761718155691021e-03
1032 -2.5753404059284748e-02 9.5877544546029217e-03 -1.3483181393385370e-02
963 6.0919935939761673e-03 -1.0857706920021033e-02 2.5761477706952918e-02
1031 -5.9160160430025439e-03 2.7500624393885995e-05 7.9649914121989428e-04
1300 5.8702832054371434e-03 -1.7882398525186783e-03 2.1879533445024685e-03
961 1.7238167262687302e-03 2.0481247564104327e-03 -7.6849324804914706e-03
1165 -1.5648354843353026e-03 3.5371379556322466e-03 4.6119627491448493e-03
83 -1.7323387176287437e-03 1.4705746301953825e-02 1.4275469269165841e-02
1588 -2.0236673641511383e-04 -3.2548875816199117e-03 -6.5767711653127326e-03
1212 -6.9936822447163119e-04 -4.0402158128294367e-04 -2.8066117732622256e-03
799 -4.4998713831074701e-03 -4.7093739160687962e-04 3.9842812541551332e-05
1266 -5.9822251865017523e-03 -1.3540903480759259e-02 2.0357269532864288e-03
1210 1.1378065121283192e-03 -1.8860998641973129e-03 -2.8085370826490556e-04
801 -6.5955722607205641e-03 -1.8318319168453074e-02 1.5112623240365539e-02
82 2.1423648891859323e-03 2.0155561208636142e-03 3.7307984741231372e-04
1810 2.2212908222201326e-03 2.2381708903474375e-03 2.9732786014487417e-03
84 2.6047445904700584e-02 5.3075385964625344e-03 5.5209586868570221e-03
1166 3.9464296472917307e-04 2.1444931190748143e-02 9.0855086263816453e-03
1578 -1.1794200591342530e-02 -2.5920899622574788e-02 -8.8496756665787412e-04
1576 -2.2056005286300471e-03 2.4513159069723170e-03 -2.5859280194306866e-03
1811 1.3761578705823460e-03 3.1421529059236755e-03 -3.0256375964581076e-03
1812 6.5265445445100521e-03 -1.2275507813507662e-03 1.1517488016642661e-02
962 1.2801013858722721e-03 -1.1481664227671757e-02 1.8159083307920222e-03
1589 3.0602801836291625e-02 6.7765428928587348e-03 -1.4478159390557886e-02
2560 2.7458232605973394e-03 2.4144915532887693e-03 -8.3428524427798505e-03
2148 -4.9556167260942736e-03 4.2553683531402773e-03 -2.8848866801433068e-03
800 1.8792579697635889e-03 7.9706055857009239e-03 -2.5226191692497178e-03
2986 4.5098459284213435e-03 -3.1975440978704943e-03 -7.5238087998926698e-04
2552 2.3783595982170978e-02 -1.0372642122907835e-02 5.9658083470248806e-03
177 4.3305562357864513e-03 -2.7686458958044850e-03 -2.4985113936732483e-02
2551 -1.2824125194910534e-04 3.3903278435259976e-03 -6.0941215611449301e-04
2553 2.3890942014777896e-02 -8.2958289830233709e-03 6.5455128781975701e-03
2988 1.0401252017614233e-02 -2.9592554162629924e-03 -3.2799223070381954e-03
3265 -3.1576063924321092e-03 -5.8295286452899452e-03 5.7424883433440611e-03
3266 4.5483188595052109e-03 2.6005119787807941e-03 6.1824697083781317e-03
3267 -3.6415064843897823e-03 -2.1554142542493286e-03 -1.4154733165477760e-03
3269 6.0396957943124911e-03 4.8294066018846312e-03 -1.0831972043307573e-03
3270 -2.2676065776932753e-03 -2.4116376317186286e-04 -1.4568129511044131e-03
3271 8.8167530573230542e-04 1.9342296967074463e-03 -8.8761005583028131e-04
3268 2.0665626171255413e-03 1.7150113549176886e-03 -3.8199576656071143e-03
3272 3.6550931202624292e-03 -3.8513236810360798e-03 1.5247159140418311e-04
3273 -2.6766953509230348e-03 -6.3859715657695656e-03 4.0073974595565718e-03
3274 1.1878848679369519e-03 -3.2464608477470445e-04 -3.9848301759870886e-03
3275 -3.8698440238857548e-03 1.7098093681112200e-03 2.1208742083562411e-03
3276 3.8782446614425199e-04 -1.5699442555885310e-03 -5.3527212731297579e-03
1418 1.1648064193748918e-02 5.8049761506442851e-03 -1.1570570150860398e-02
2989 -3.6622689846287052e-03 -1.7204041508436306e-03 -4.7973897163915953e-03
2990 4.8064508373610003e-03 -1.0015809740727605e-02 7.4950609478424586e-03
2993 -3.0686534815505147e-02 -1.6357636547151864e-02 -1.7718749850381379e-02
1570 1.5248063332452383e-03 -3.4648988511539855e-03 5.7233846884979988e-03
2569 2.9775727642732197e-03 1.2857642385770732e-03 4.1168530991652394e-04
2621 -5.3112786546818825e-03 -1.2875317427077924e-03 -9.2401714412739255e-03
1530 4.0634439985118313e-03 1.8270539528922460e-02 1.6723675528855853e-04
1528 -7.2582504075337879e-04 -4.4032718573175784e-04 1.9873689318374212e-03
1529 1.0790715672865851e-02 9.7590827339096957e-03 -1.9329224903549714e-03
2571 -8.5979478948830425e-03 -1.6343776469504523e-02 2.5819662627126899e-02
2570 -5.1422687802314302e-04 1.9778925835539755e-02 7.5681767245437584e-04
2620 5.0049263106969810e-03 -8.9910571285689258e-05 1.2655208997148591e-03
2622 1.5966414018765647e-02 1.8231603910159029e-03 1.2884352635643212e-02
2992 3.5565589237068086e-03 6.4580868714893128e-04 -4.0375245881374370e-03
2852 -4.6715030843202379e-03 1.6072162045355505e-02 2.3795066490151944e-03
223 -3.3082369077507396e-03 3.9114465857143831e-03 4.3425441986722612e-03
1572 -1.3901072407939996e-03 -1.2269925787886368e-02 1.1982441177417922e-02
205 9.8785304099362442e-04 4.3913806450905169e-03 -4.7033854225503307e-03
1601 1.4475452094943704e-02 1.0680726588852165e-02 -1.6340770538678554e-02
225 -1.4178832784048901e-02 5.3889421463976812e-03 -3.5010237269712439e-03
1143 -6.0587596211439257e-04 2.9392187853157646e-03 1.6970088749023312e-03
1142 8.4900539402912537e-03 1.2258372229979903e-02 -1.0252004080418531e-03
224 9.2788659795172857e-03 7.8856556333237824e-03 4.0011274950514132e-03
207 1.1011300366251812e-02 -4.7876307246388422e-03 -1.4485706500875942e-02
2962 4.9793647362494217e-03 3.8259287169344516e-03 4.3057434803101188e-03
1141 -6.4139182006851076e-03 -2.0611500094903667e-03 -6.2099821884733933e-04
2994 7.0213736191471346e-03 -1.6117125266068137e-03 5.1886317354075335e-03
1251 2.0342152132482440e-02 -2.3255149691254699e-02 1.8564604859089836e-02
1250 1.1361682007184884e-02 -8.0257088057898492e-03 1.3768259239081145e-02
1627 -5.6766989968570526e-03 5.9813654098536152e-03 8.5412300903136857e-03
2964 9.8413412126655622e-03 5.2689616160828219e-03 1.1169846523146912e-02
216 5.9262976385246434e-03 1.3001904927285011e-03 8.2162368834813298e-03
2851 -1.2040987259009277e-03 2.4265986207552752e-03 3.9642064406665845e-03
2747 -3.0488995292634727e-02 1.8058202793865757e-02 -1.8462317662879091e-02
2748 2.2807802726308574e-02 2.0879845157689109e-02 -1.4131442273825861e-02
43 -4.5917751358212590e-03 1.3164982602302800e-03 -4.0772751628335218e-03
490 -3.0904790660698060e-03 -6.2092915765050872e-03 5.2545558686296970e-03
492 -3.9921015623741937e-03 4.5388239652353031e-03 -1.0641881222873455e-02
1193 -1.3655817692543375e-04 3.0630365517840771e-03 2.3375233208944865e-03
2853 -4.5822539912258996e-03 -2.4357556187099860e-03 9.4964960382251194e-03
45 2.3890953253013408e-02 -2.2009723955922190e-02 6.8839067076160824e-03
592 -8.0442892034849767e-03 3.8867808295083195e-03 5.3434149767938250e-03
594 1.2572606204475012e-03 -1.0581040881378324e-03 1.9345404187907731e-02
593 6.8504651571435942e-03 1.2591404943846326e-02 -7.0038084348626531e-03
2917 -6.2781336802604747e-03 3.6474046020607202e-03 1.0604624432607850e-04
2918 -2.4743662540066755e-02 2.7839550048484735e-02 2.9960484279639054e-02
44 2.8141139065211945e-03 -6.9255854973416285e-03 1.2831154029668227e-02
1834 5.7222747469003682e-03 6.9786441058524570e-03 -1.2594232080918248e-03
2489 -3.3871244076280672e-03 6.0464001522644584e-03 -5.7142660064366593e-03
491 8.3660765441433832e-03 -1.5711109963146137e-02 -4.7483982371403577e-03
2093 -1.4685263046113971e-02 -3.3363703331267219e-03 -9.6535443582829797e-03
387 6.5244473542684306e-03 4.2062813420468644e-02 -1.1237117636160308e-02
1302 8.8122174821921081e-03 -4.1223843876468328e-03 -2.1386182208330103e-02
1148 -9.7421764511645068e-03 3.3905954389122804e-03 -1.4182410748922864e-02
1301 -1.6899280826055663e-03 9.6919952718401738e-04 8.8603594298459366e-03
2337 -3.3015373682549736e-03 6.1623181107925157e-03 -2.3306185946489126e-03
385 -2.6442348246337095e-03 -1.7723263016551391e-03 4.6702771186973890e-04
1194 2.4670143173425407e-03 5.6246577951344781e-03 3.2508335353871831e-04
1192 -3.2780538268990370e-03 -1.0184441116752542e-03 5.7960513153316236e-03
1890 -3.4550968618999606e-03 -5.1017934199911654e-03 1.1807952178265156e-02
1615 8.9985739678874188e-03 2.0157204049143563e-03 5.2113081367301840e-03
2343 -4.9640539109003859e-03 8.9383407677396821e-03 1.0800466564136668e-02
28 -3.9211655855423430e-04 -1.5738088769879218e-03 -2.4211716888793344e-03
1147 2.0050136030489102e-03 6.0161459469455720e-03 -3.2146848908809300e-03
1888 -1.8758582729356452e-03 -5.1755351144843987e-03 1.4993839989028092e-03
2058 2.3111094407477877e-02 -1.8437628748640533e-03 1.2449296929770025e-02
29 1.2284736788526908e-02 -1.7850017833464678e-02 -4.0281664456342403e-02
1654 -2.0484006596244602e-03 6.7784382099566522e-03 2.1308807107102033e-03
1655 -1.1062365081552375e-02 -5.2745480526497808e-03 -9.0575759290557976e-03
1617 8.7552823291395833e-03 -5.1410591825441915e-03 -1.9050200849312197e-02
1048 -1.2742517935215580e-03 -2.0959548447352992e-03 -2.8217714782478882e-03
1149 7.2982122554724816e-04 -8.9222247152022794e-04 -5.3594881064531854e-05
1836 2.3984488718125956e-02 4.4835526492615621e-03 2.5952815889974624e-03
2056 6.0669988146469500e-04 -4.0088092092313826e-03 -2.9515819142790548e-03
1656 3.0020395779493416e-04 1.0359586720970764e-02 3.7758261739807043e-03
2057 -3.3592562780833397e-02 1.6819792625419817e-02 1.2034530810956706e-02
1616 1.3581205760727888e-02 -1.3827319516757450e-02 -1.5073232074967391e-02
30 -1.0700084006157257e-02 9.3064205544256858e-04 -2.2126224451019711e-02
1156 -2.3373190292987765e-03 3.1775168648664602e-03 5.5969329365604201e-03
1049 -3.5048074433054716e-02 -1.7751633978671005e-02 -1.5499147218939694e-02
2335 -2.0580486750675022e-03 6.2558022409428000e-03 1.4208114328511598e-03
1835 -1.3479905562693883e-02 1.1382556297810948e-03 -1.6312518844490986e-03
2341 2.9359020153507443e-03 6.2471834077454172e-03 4.0573151692525882e-03
1157 1.0856149800757614e-02 -5.9413220849817081e-03 -5.1763551783433562e-03
1211 1.9437613063971099e-02 -1.9048057064163230e-02 2.2838618248599816e-02
1050 1.4858633505625220e-02 7.7768685289169651e-03 7.3415823196850642e-03
2342 8.1071469414053417e-03 8.2947228163468955e-03 -5.8053659907612368e-03
750 1.6892762782192611e-02 1.3835073078063328e-02 1.0265028101595565e-03
2023 -2.0606124621187906e-03 1.8279018862236358e-03 6.4110096764590585e-03
748 2.4197352793213773e-03 1.6188661417859383e-03 5.9732930151144420e-03
749 7.0073751159428219e-03 -6.1316923605279220e-03 -1.0667866044113589e-02
2987 -2.2492717314616276e-02 -1.2220757492402751e-02 -1.0104081746310030e-02
2024 -2.2344754370339174e-02 -1.3759286156557964e-02 -2.9329810028477432e-03
2025 2.8176125387388663e-02 1.4310776558822236e-02 -1.1142194955397405e-02
3277 1.8353435261131055e-03 -2.8340195897915252e-03 -2.1805432910945275e-03
3278 2.0043092072500202e-03 -4.1625223999258755e-03 -1.4094454942111762e-03
3279 -3.3331120919501025e-03 5.6288305444077815e-03 2.8037906131957529e-03
3280 -6.4229274195693881e-03 2.5082962680272767e-03 3.5976475185143584e-03
3281 -2.7305097685327486e-03 -3.8159682096033536e-03 -5.8678465905262637e-03
3282 9.1485697819500375e-04 -6.0514600435355363e-04 3.5388703360241186e-03
3283 -3.5377322191311386e-03 -5.3858753472974885e-03 5.9121978708793011e-03
3284 2.3829818759685266e-03 -2.3520806965005837e-03 1.1994580962336745e-03
3285 3.3217305719119780e-04 -3.1969332268660614e-03 -5.9021519550968744e-03
3286 -2.0929999883863180e-03 -1.3354708967365248e-04 6.5374388780889171e-03
3287 -5.5954902560953818e-05 -3.8585242523111228e-03 -8.1958451790603928e-04
3288 -1.6450173033692549e-04 -8.0855784776106415e-04 -5.0687076408639624e-04
2061 8.9509751797857660e-03 2.1201827682187101e-02 2.8547614166674427e-02
1238 1.2477041680693387e-04 -1.3049797344113550e-03 -9.7082530970071315e-03
378 2.5419478609393364e-02 4.0186579026355394e-03 -1.5091371250737060e-03
2771 1.5460317444779718e-02 1.5322526809482961e-02 -1.5860581600679303e-03
2770 4.1639004229770682e-03 -6.5672134734778825e-03 3.3700105266329348e-03
2219 7.7450766339925677e-03 8.8176026115143885e-03 2.0988102173169340e-03
2772 -4.5945520567465337e-03 9.4830645784345462e-03 6.8702071496155081e-03
1966 -3.6241006354987473e-03 -1.9987133627049252e-03 -2.7341146332764115e-03
376 4.1451744838990804e-04 -5.1423157779301948e-03 9.1467386764107689e-04
2289 -8.0852858420530794e-03 7.4386293269150796e-03 -2.6804397345855445e-03
1237 1.6968338170806022e-03 -5.4473648689515996e-03 -3.8415683066802746e-03
2968 1.1393754100419808e-03 -1.5372836774088193e-03 4.8449618370091816e-03
1419 -1.0331841895181130e-02 3.0000106653052532e-03 4.8539100152469282e-03
2970 -1.9040931172234754e-03 1.3015268176194743e-02 -8.6279382291365222e-03
1239 6.9567375384124224e-03 4.0792374522266800e-03 -3.1273715315658034e-03
1602 -1.3219692533431750e-02 3.9216646085004610e-03 1.1767079902985519e-02
784 4.0790147065309675e-04 2.9073052206830684e-03 -1.9252934169851214e-03
786 2.3398542865777711e-02 1.7321066234846104e-02 -9.6781044930588801e-03
2220 1.1434200757601532e-03 -1.0509252090956202e-03 -7.4967168933369325e-04
1968 2.5004900195654913e-03 3.0334960998207789e-03 -5.0163006693747089e-03
377 -7.0842216493187445e-03 3.6390771707145728e-03 6.5224809621852939e-03
2969 -8.2531228656925470e-03 6.5914301010308075e-03 1.5701779860503393e-02
609 -7.1450334150502046e-03 -1.3473827569372664e-03 -6.5878393229619574e-03
607 -2.3146128348218039e-03 -2.8707715141520774e-04 4.5498143479157912e-04
608 -2.5602971503044872e-03 7.8412948875251315e-05 -5.0242197235130111e-04
2218 3.2898976293601508e-03 -1.3243569045676873e-03 -6.0018175744710892e-03
2888 -2.1992711664358842e-03 -1.1992233365315592e-02 1.8952969583539571e-02
1600 -1.7677478689875604e-03 2.2252396226552086e-03 -3.0691284518201759e-03
1249 -1.2129779796566605e-03 3.2264622043996733e-04 2.1884767918389386e-03
785 -1.6852083627748583e-02 -5.4979980657820044e-03 5.5442005836563888e-03
2060 1.0155478615952399e-02 -5.7839205316630093e-03 1.1737110546059909e-02
1417 -6.5577691016943255e-03 -1.0564940450936376e-03 -2.2928819565351216e-03
437 5.4655452787191281e-03 1.9695682116162706e-03 6.4744850423877987e-04
2963 -5.4015712380155361e-03 2.5540675364402212e-02 2.9510047272495983e-04
214 4.1279553795700091e-03 1.2139567622500233e-03 1.0596981121681376e-03
1889 -6.1696918056274863e-03 -1.4340454477195744e-02 -8.5676077472675444e-03
2267 6.2981433317353880e-05 -1.3024117254251698e-02 -9.9552208779392620e-03
513 5.1444861355068733e-03 5.0142320764691274e-03 -1.1013423182683401e-02
2674 -6.2813351911146715e-04 -1.9372717125715900e-03 3.8693958397297121e-04
2676 1.3230117042941173e-02 -4.5576168003506126e-03 -4.1431948092919444e-03
2887 -5.0351101085892975e-04 5.9901005075265875e-03 1.9790054579820367e-03
2675 -5.1288862924248778e-03 -1.5773107606240273e-03 -8.0482765496357658e-03
190 -1.1736537274562987e-03 4.3321689430659543e-03 8.5562074664349364e-04
820 -1.3338023126353163e-03 -9.8303094105597587e-03 -3.0118135602049882e-03
512 3.0784326944019733e-03 2.4895818435205839e-03 3.6308943476592755e-03
821 -4.8947608558819961e-03 -1.2796817021623563e-02 2.1572280704602472e-03
511 -2.4381869213094508e-03 -5.1593870816290209e-03 -3.6477356408795756e-03
2266 1.3508363684456000e-04 -3.1250427818092178e-04 -2.4820076852136888e-03
415 3.4467400048334043e-03 -2.4655577825162377e-03 1.9361315357064078e-03
200 2.5947183138286907e-03 2.9912387109755786e-03 4.1143167549995722e-03
416 -1.4667666613074235e-03 6.0067635348709583e-03 -1.2460779284941688e-02
191 2.1179209368283457e-02 -1.7339632261294381e-03 -5.7028183198737726e-03
192 2.2576682197437623e-03 1.9341663809382573e-03 3.0262055022171011e-02
2889 -1.0038482189647082e-02 -7.3827502448229367e-03 -1.3968471033605561e-02
822 -1.3004493687667941e-02 -1.9843890407341528e-02 1.7028713530977225e-02
417 7.0047116308146681e-03 -3.7363335863799764e-03 7.0992884211941460e-03
215 -1.0572825755761409e-03 -1.8070605881304320e-03 -6.9418511227619809e-03
2268 -1.4727798938966844e-02 -2.3083645953928578e-02 2.2320025335029262e-03
2921 1.7633181978499834e-02 -1.5642373720632823e-03 3.6352897681222941e-02
1332 -1.6892486873844015e-03 -1.3270748533467698e-02 4.3040128045539264e-03
1700 1.2186027637685079e-03 9.3234173208227022e-03 6.2433975597515224e-03
2840 -8.6831556822703753e-03 -3.1877721957721361e-03 2.5383820468854779e-02
199 1.3579072356070347e-03 -8.2783596733901708e-03 -2.5538845392898595e-03
701 2.4177102941262420e-03 1.6669588120913239e-03 4.0699553204327690e-03
2126 -6.9812834878270153e-03 2.8807254695910011e-02 -8.5407672762443793e-03
1779 -1.4028780044586703e-02 2.4727050655180926e-03 -5.2539414825052673e-03
2125 1.2515638680920938e-04 4.4185562640539343e-04 7.2198501971663313e-04
770 1.7072695275013719e-02 -4.3827901713204614e-03 1.6997049125113840e-02
2029 3.5811571494871086e-03 -5.9769142327242512e-03 4.6936756145690341e-03
769 -1.6070469864338174e-03 -5.6384037826817442e-03 1.1340597645816675e-03
2031 -4.2982536274956016e-03 2.2214519953441922e-03 -5.6331580983618899e-03
2839 1.0616022693598749e-03 1.9241445844145404e-03 6.7147903855870111e-03
771 1.6061599132433414e-02 -6.1810820379264997e-03 1.5638531983659654e-02
580 -7.3581967880005606e-04 2.8993552542929801e-03 -4.1193474486406903e-03
64 1.2891413836437582e-03 6.4347333326367608e-04 -5.2876958244195294e-03
34 -3.5337862708638619e-03 -2.1553732184672173e-03 -1.7007730393151089e-03
36 3.7576315378604892e-03 4.3544246035555701e-03 2.0791509889872962e-03
65 -3.3534284997750269e-04 1.0782087866404028e-02 3.0852804053551871e-03
582 -1.7732521394054354e-03 -6.2226637720110196e-04 6.4949920621914523e-03
35 -9.4891265341521137e-03 3.1031216078304487e-03 -8.5860339076612377e-03
2030 -2.2064190824190445e-03 -4.0981729529248005e-03 1.4224893175009345e-03
66 -9.4749032414644975e-03 9.0472722154716027e-03 8.0469245806030366e-03
2127 1.0973704749092716e-02 -1.0938625136473833e-02 1.3377836728343872e-02
1777 2.2238213791875160e-03 3.8158997601705292e-03 -6.5367992409236188e-04
2841 7.7762194608624812e-04 -9.4001346386047482e-03 9.2381497609338378e-03
2336 1.6077645420985674e-04 6.1531894916141156e-03 -3.3330764132592358e-03
1699 -6.9730442852368726e-03 2.8687630609919644e-03 3.6451262839574845e-03
1701 -1.4103643753666285e-02 1.0478336220069689e-02 -8.9002969411863843e-03
702 9.2898012901937669e-03 -1.1967643068348251e-02 -1.0479910942336277e-02
700 -8.6712678970734072e-04 -6.4558971747522931e-04 3.4111690497949441e-03
581 6.2099466516049428e-03 7.0962586104582242e-03 8.5364846416532639e-03
3289 1.8328624113685425e-04 2.1305402750701678e-03 3.8551147468322265e-03
3290 2.7951653973026396e-03 2.4515161358150384e-03 -3.6611326798005653e-03
3291 -5.6595463528135957e-03 8.6239761532064512e-04 5.3610552185722523e-03
3292 -3.6411259616487275e-03 4.2400314546645404e-03 3.9135218664070144e-03
3294 -6.0100231081746227e-03 6.0875510596880905e-03 2.7736698869544303e-03
3296 9.5106300612336075e-04 -5.6688217542452003e-03 -1.0048936454916694e-03
3297 6.5915690070517292e-03 -3.5452775567121337e-03 -4.8533046510193297e-03
3298 5.5130002016917879e-03 -3.8114473785658669e-03 3.4204577063273569e-03
3299 -6.2383716168226246e-03 -3.5702444461280310e-03 2.3653238172441885e-03
3300 5.4493931394374094e-04 -1.9954941172485537e-03 5.2914906576858132e-03
3293 -2.6172595720976564e-03 5.4902794894932288e-03 -4.8968466689387662e-03
3295 -5.7928709359855004e-03 9.7110737165089259e-04 5.0494290257408455e-03
113 -4.5276936865542919e-03 4.2641523946801109e-03 -1.1298719583621209e-02
114 1.3993548755144888e-03 1.1877088507287914e-02 2.1913901783851341e-02
112 5.7752123991385680e-04 2.8646447671389751e-03 -2.1927311749873682e-03
2452 4.8454927323460439e-03 -6.4531442755587590e-03 4.0518897650969679e-03
1178 9.6177030939159430e-04 -7.3422881312074735e-03 -5.6565444673996306e-03
1177 -7.4946167202639552e-03 -1.3642422889442248e-03 2.6155996974990352e-03
2454 6.7461013598559081e-03 3.6149701621059986e-05 3.3665184979957078e-03
449 1.1748231207348214e-04 3.4611209807217580e-03 1.0586741308454611e-03
326 3.7789895673268699e-04 -3.5323858615760708e-03 -4.2957189955428040e-03
703 5.2129670572734063e-03 -2.1342446439721599e-03 -3.8472286948798128e-03
2045 -3.5120181266041954e-03 2.0536621263807141e-02 1.3460707307119693e-02
704 -6.0435871536959227e-03 -7.4936014834346594e-03 -1.0698633906672821e-03
1341 -1.7514827137471357e-02 1.6127892006113448e-02 -1.1111384672585153e-02
705 -5.3589514575952428e-03 9.7020785935431793e-03 -1.1278460814638281e-03
465 -1.4115080105482588e-02 7.8767550940472292e-03 3.1657426058687142e-03
1440 1.5218645318567151e-03 8.5925952771451781e-03 1.1046475828740680e-02
1560 -5.7643033082173129e-03 5.4092489738096928e-03 2.5809547820474688e-03
1558 -3.8807029974336793e-03 -3.1450559798385678e-03 3.1481212293244941e-03
464 -1.3194422896587170e-02 5.8358199187108070e-03 5.3548804171226439e-03
1740 1.2476877614032020e-02 -1.9487278548681632e-02 -3.2726168844208949e-03
1439 3.4668263219815123e-03 7.8636883291163372e-03 2.0054556455742505e-03
1438 -9.8204803286413320e-04 7.3715059491502623e-03 6.1650508567652803e-03
463 9.3263965841295748e-04 2.4373943417733790e-03 2.1437287063503650e-03
1339 -1.4935369776871393e-03 5.6394382875288862e-03 -5.5556459709180947e-03
1366 -1.1844576908660715e-03 -3.7499241313585642e-03 8.9274172455883153e-03
2046 -2.4169372293252434e-02 -1.3897114076730720e-03 -1.8568826114480244e-03
1368 2.3908833033404815e-03 7.2811799404367229e-03 -2.6289152111154310e-03
2409 1.5533006643939033e-03 -3.0003458056221668e-03 1.4475295558152882e-02
1367 -2.9249348358315712e-03 -2.0409944349006486e-02 2.7628684600925980e-02
1559 -9.6891834922930072e-03 -7.3740068470818688e-03 9.2951446744406439e-03
263 -3.2784479549822023e-04 -4.2355563199047647e-03 -4.1806065821446112e-04
1340 -3.0219793523903324e-03 1.3575724225246498e-02 -7.4929085916815470e-03
2616 1.6530665527861945e-02 -1.6085202665647523e-02 7.1584530982227003e-05
2614 -4.1916351481086286e-03 1.5825442301416264e-03 1.1396179157946173e-02
2044 -8.7482965389381780e-03 2.3961611582073972e-03 5.8837639826613960e-03
1727 -4.0377629123399773e-03 4.2240701285865840e-03 5.8473961230257245e-03
1728 -2.2697472097249004e-02 -9.7558314108784350e-03 -2.5231266514811267e-04
2615 1.9157362468297620e-02 -8.2100843521756524e-04 -1.1616182956219003e-03
51 3.5304401764844487e-03 -1.0128632064226590e-02 2.1383263331957666e-02
450 -6.7085195348160782e-03 2.4966875668507287e-02 -1.7633618559327463e-03
448 4.7652143882449989e-03 -6.7385842294618598e-03 2.3146636270994147e-03
1962 6.1088068073212945e-03 4.3518456910815904e-03 -2.9334400660993583e-02
1960 -1.1460087516256203e-03 -1.6867206486435369e-03 2.2945974742238375e-03
195 2.6303357819293063e-02 1.5347030516944025e-02 -4.3385586784625068e-03
50 1.3134333560010591e-03 7.8076228542696734e-03 -1.0351349844168517e-02
1462 3.5978331519628459e-03 9.0440523731848028e-03 4.3834542442572006e-03
22 4.2389087799188747e-03 1.8420006674966206e-03 6.4451506818317223e-04
1961 -1.7931196482301563e-03 6.7484844787792954e-04 -2.0465109278585733e-02
1583 -1.3316732359654816e-02 -4.4929982781180787e-03 -1.0811739389718814e-02
23 9.7355670533986055e-03 6.6436483936817595e-04 4.5204381844741347e-04
193 3.3412092790354141e-03 4.9234248782157172e-03 -5.8137533768783459e-03
1729 1.2223391773632209e-03 1.2028598030049029e-03 3.0672768244336182e-04
2378 -1.5980476237862458e-03 9.2026386596501652e-03 1.7503542559268441e-02
2377 2.0031505087375434e-03 5.8802775192548973e-04 -1.1800319495409372e-03
2215 -1.0332337117412557e-03 -8.1178753783474906e-03 5.3843376058201442e-04
1052 6.7041927104466090e-03 1.1202720469779947e-02 -1.4125123592386491e-03
194 5.4174262834567818e-03 -7.0931670641801489e-04 -1.3487691497908237e-02
1463 8.9021369692577896e-04 3.1026753893149562e-03 1.1824841096531835e-02
2217 5.0523590768967639e-04 -1.0580090436708626e-02 1.4164121151212981e-02
2474 -5.9617686194157905e-03 -2.0740584860427886e-03 -4.5901260004479975e-03
2379 -2.3498469852119452e-02 -2.8566548806908264e-03 -3.0546801856573022e-03
1051 4.0311910231139732e-04 -2.7610607560821150e-03 -8.8291958962714925e-03
49 4.5616101721500562e-03 -5.0361452248654419e-03 9.6492217879855702e-04
1730 -6.6014137858768458e-04 -4.3184506384435781e-03 8.8202214032949769e-03
2216 -1.2096947181144490e-02 -1.0233203549782691e-02 -3.3356196024288947e-03
1731 -5.7840683623879702e-03 -5.8474358122205502e-03 -4.5144731985362549e-03
2868 1.4955942288219731e-02 -2.4059762191190508e-03 1.0471521383005036e-03
1337 -3.8874770149603254e-03 -9.2085961098934332e-04 -6.4250776527916276e-03
1814 -8.0713576474055956e-03 8.8074517673882306e-04 4.7284653398579155e-03
497 3.4366350643349900e-03 -1.6162029511055400e-03 -3.4504395784961256e-03
1296 7.5309323144862857e-03 2.2688491333096731e-03 1.1190467459968174e-02
1356 2.2330099446064020e-03 -4.0422907075860432e-03 -1.3774026075792362e-02
2499 1.4484551589660770e-03 4.9523157645150464e-03 -4.8362332040047338e-03
1815 -4.9999073955436617e-03 -4.7831538335962069e-03 1.1498050041090491e-03
496 5.1591902868001575e-03 -3.0343429224537412e-03 -8.2768087317064269e-04
238 -2.2980210142671148e-03 1.5168713174087453e-03 -1.0844807523880556e-03
1232 3.5822320456394760e-03 1.4617885681261419e-02 1.2464647702627400e-03
712 1.7953645973813241e-03 -3.3620851354541743e-03 -7.1576688070557233e-04
1231 2.4567697428823209e-03 8.1898984118521437e-03 6.8512580384268152e-04
1354 2.4925671739493583e-04 9.6833793177167327e-04 -3.8372038310793416e-03
1053 -7.3066670701031613e-03 -5.9299554264940360e-03 3.4794010503674810e-02
239 9.4983985473567987e-03 2.2067012842321605e-02 9.6103476937604310e-03
1233 -2.5572913717422451e-04 7.3380980120360279e-03 -5.1980382931680917e-03
1355 3.4762538186942447e-03 8.1121349171144972e-03 -4.3268272184556177e-04
713 -1.7785756227847300e-02 -1.1321515357885273e-03 7.8167381991571215e-03
714 -1.4023478504764944e-02 -2.7211110048185511e-02 -2.8200174368101499e-02
1813 -6.1147904341268102e-03 -2.3293696097336706e-03 4.1039427088654648e-03
498 3.2551125654179365e-03 -5.0711439653031301e-03 3.8443010165194571e-04
2624 9.8810597694821214e-03 -2.0326068184940042e-02 -4.1599210234532710e-03
240 3.7328414441349681e-03 1.9241890815930123e-02 1.3344195543061032e-02
2497 1.0283300041274545e-03 5.9575644074278677e-03 -5.2988777070514057e-05
2475 -9.1540167642163879e-04 9.9682931739739668e-03 -2.7276188137889267e-03
229 1.8637140401915058e-03 1.5385625989037420e-03 -1.8030449331359467e-03
553 1.2797321713146099e-03 3.0573868794245298e-03 -2.4596709933348963e-03
1150 1.5254050768869437e-03 -5.0361231278474349e-04 3.2711520565755540e-03
1152 -2.2415302609111871e-04 -1.7573981376088276e-03 3.9370113030100413e-03
231 2.3644025759625292e-02 1.5650000939316400e-02 -3.2530738659411404e-03
1151 -1.3308584596293518e-02 -8.0008914344900511e-03 9.8796718749746392e-03
555 2.2955050620474142e-02 1.1415728493922932e-02 1.2982276852728500e-02
3301 9.8943114335916442e-04 -1.0712475539570536e-03 -4.3610749724773716e-04
3302 2.3607194850234717e-03 -3.0335887889301506e-03 5.0023954757981923e-03
3303 -2.5608360677635911e-03 -6.5834456506595066e-03 6.3869396339542158e-03
3304 4.8487610328814060e-03 -3.2202437122127222e-03 2.4783385247433552e-03
3309 -6.9055193184175000e-04 1.3976766563615819e-03 -1.8000002825744482e-03
3306 -3.0215015081102277e-03 7.7430125594456581e-04 5.3168686791186396e-03
3308 -6.0344905222840675e-03 -4.9764601765762626e-03 4.2041077225142588e-03
3310 -4.7664298143985651e-03 5.4788949631316610e-03 3.8433276227769933e-03
3311 4.7688802515982549e-03 1.4281848557862683e-03 4.0822050266605759e-03
3312 4.6445697212823189e-03 6.3108144719441301e-03 -6.3404467167314932e-03
3305 5.8933244669349830e-03 -9.1994406476359641e-04 -5.1625373202187639e-03
3307 6.8069848363779982e-04 -1.2020899658538656e-03 1.3744731094316928e-03
542 -8.6797925832073717e-03 1.3207401451347197e-03 5.7346743727603967e-03
2453 2.7742425194706374e-02 -1.4790820862549349e-02 -1.3873429303048850e-02
1861 -2.4913874693953597e-03 -2.7226610276263989e-03 2.5507049779985879e-03
543 -8.5595926602381866e-03 -1.4006182043592213e-04 -5.3446797149552545e-03
541 -9.0242517474044461e-03 -6.7308233336377526e-04 -6.8087417673185777e-03
2457 -8.6540744242818990e-04 3.9620017188213529e-03 1.0659490645676620e-02
325 -2.6373302946876797e-04 -3.0234411078153365e-03 -3.5415244404864280e-03
777 1.4211155014662410e-02 -5.7866719927307329e-03 2.4470937447892995e-02
775 1.1210230108592967e-04 6.2149903789280453e-03 8.7846561340938750e-03
1862 8.5074538414424816e-03 -5.6020996069220232e-04 -2.5196601645553700e-02
2456 -7.5799535032698522e-04 1.5444168260887696e-02 -1.2322257849877952e-02
2455 5.4217519868403146e-04 3.4652160247496708e-03 -1.3216516056255784e-03
327 -1.2897146544949382e-02 6.3784844616362095e-03 2.7174797623385856e-03
1646 7.3384944014102437e-03 4.4781728828818864e-03 1.7024428088582191e-02
1863 2.2011533645370191e-02 -1.7077091629964656e-02 -8.2412841191516276e-03
1647 -3.3623540595810017e-03 8.0764336621565579e-03 -1.0216742431794002e-02
1645 -9.5959975111468954e-05 7.0041082853239114e-03 -1.9128105663334116e-03
2585 3.0753837779142305e-03 -4.9764558465232814e-03 1.1902236559079658e-02
1677 -9.5927614378729670e-03 -8.1965520250594625e-03 -2.1033080168063184e-03
1675 4.2258373694345849e-04 3.1388244163866271e-03 -7.3334040486346822e-03
2574 8.2356325599002057e-03 -5.6955687616315638e-04 -8.4522868241911370e-03
2586 8.1066609031262473e-03 5.9445399061463546e-03 3.5729348666627254e-03
2584 -1.2815790340221323e-03 -9.0282126126125747e-04 3.3123488763989223e-03
1671 -3.9985452838438833e-03 -2.9518776580864433e-03 -6.8198023564432150e-03
707 7.0042488053039141e-03 -4.9235594950114096e-03 -2.0085619203749090e-02
1676 1.7287174348502084e-02 -9.9905975661640349e-04 -1.6622451872796803e-02
1726 -6.5489820960483204e-03 -2.9003629669298657e-03 1.2817147712616609e-03
368 -2.3774014990854169e-02 -1.0433874204626995e-02 -1.1261760034763034e-02
1582 7.2648720755168845e-04 -1.7814417126971968e-03 -7.0527164946946708e-04
2733 2.3219664746878849e-03 -1.6133120422938171e-02 7.1748380286737684e-03
1584 -1.4102389378639401e-02 5.4280011375480337e-03 1.4899951489436866e-02
109 1.0270251117688958e-03 -1.9192633247897949e-03 -1.2870370242768221e-03
2934 1.5868322501382533e-02 -1.6512223867045969e-02 1.2399434431675693e-02
1323 -5.3833185603551987e-03 2.7711434900988255e-03 -7.1897540637135653e-03
2424 -3.8028829353191655e-03 -1.3134732296727444e-02 -8.5422697089249902e-04
1322 6.4364997696712729e-03 1.3689877544526444e-02 -5.2920871760128079e-04
2308 -6.4120882497311280e-03 2.1977410887388097e-03 2.0077458960445003e-03
2819 -2.3526057459449905e-02 -5.9938142935717174e-03 4.1026132052594593e-03
2310 -4.2538431729809119e-03 -1.6678479630562071e-04 -1.0913302212832226e-03
1140 2.6095447670202365e-03 2.3343808727867559e-02 2.3702513305681978e-02
2732 -1.5004286630795689e-03 -2.2343317842903653e-03 8.5642050074145621e-03
1321 -1.7128344337531524e-03 1.8870002468545455e-03 -6.0565960246905537e-04
1138 5.0506197057077077e-03 -4.3009087943018617e-04 3.9995095596916733e-03
2818 -3.3602225389227532e-03 3.7616004751433447e-03 3.5808106332880542e-03
1139 -6.4741467381395496e-03 -2.7352477231936706e-02 1.7793210565260238e-02
2309 -5.8084426106399245e-03 4.8036188924686311e-03 9.4717224033151568e-04
2065 -6.4694006675347490e-03 -4.0703499039346069e-03 -3.2654493482545907e-03
2932 -8.6111682928534925e-04 -4.8289787767744792e-03 7.5491344303405157e-04
2933 -8.0292918368693857e-04 -2.5349173883027994e-03 -3.9879538965058581e-03
110 -6.9318353272086203e-03 2.6474043447133827e-03 1.5076238280100112e-02
1669 3.4562783019535157e-03 1.1112821825355803e-03 -9.3414559573475695e-03
111 -1.2064272711736041e-03 6.4779188553037697e-03 2.1146227180901492e-02
2066 -1.2977575964093857e-02 3.8624312373111989e-04 -8.3713201926158397e-03
476 8.5123470618422709e-03 1.1734746144167325e-02 -1.1620017886793921e-02
1670 2.6736882253645708e-03 2.2950759961208140e-03 -1.6982100821427138e-02
2422 2.5598312971877629e-03 -1.6122684197002572e-03 -2.8794638964381378e-03
2067 -1.4093001462089315e-03 -2.3182483549370331e-02 2.1490388942280156e-02
2820 -2.9949182790455159e-03 -2.8471304196558979e-03 6.3621952499452402e-04
683 -1.4874378258822377e-02 3.3781380264649800e-04 9.4442128141781073e-03
3 -5.1303588320347575e-04 1.5098260891324575e-02 4.0998695864744583e-03
2879 -8.6335073217572462e-03 -4.6441571269049018e-03 -1.5453869466232062e-02
2178 -4.0239457885386087e-03 1.2083248631429130e-03 5.7423581489599732e-03
2878 -1.1449998611510342e-03 -5.6769056886415026e-04 5.6792131795074400e-03
978 5.6983275886024667e-03 -2.2479037197121982e-02 -7.0821065511533679e-04
375 1.4724502721978571e-02 2.8162945969317371e-02 2.6791556006525455e-02
374 2.7387024444590471e-02 -1.7125674226724324e-02 -9.0633605061100561e-03
2203 -5.6533476602323510e-04 -5.7123179734869176e-03 -2.1343671830529845e-03
475 -2.7514571099144592e-03 5.3617207062063073e-03 -3.2286162056857767e-03
210 1.3750586670984256e-02 -1.1758063643905753e-02 4.6013129571904491e-03
373 -5.2333119432470144e-04 4.9456572725071705e-03 1.1867760000531589e-03
1363 2.3251021274810660e-03 5.4926038597660123e-03 -5.1581227983293837e-03
1365 7.2711352224958175e-03 -1.8882762765332978e-02 2.0677735021890076e-02
1837 -2.0135493903630629e-03 -3.9526516832295690e-03 8.1432968552595970e-05
1838 8.1866606957845542e-04 4.5745307754651680e-03 -2.7521679875230245e-03
1295 -5.2735208310623885e-03 1.7317092277055645e-02 -4.2340871705298135e-03
1364 -5.1966052312696215e-03 1.3445518155891357e-02 -5.4303132148567617e-03
2204 -1.2069998901400373e-02 -3.5572342457163057e-02 -6.3080463709442860e-03
1839 -6.4328482676449241e-03 -2.4426766364995193e-02 6.2050944462455678e-03
349 -1.2751555945726171e-03 -1.5281273547541295e-03 3.5436387798405142e-03
350 -2.2911356798896786e-02 -5.4578188521804075e-03 4.1904407955778772e-03
2177 3.9662877596106632e-03 1.7753395092469027e-02 -7.8015857223401614e-03
2880 -8.5561273929644251e-03 -1.3308094789913948e-02 -3.8924608149256785e-03
2731 -2.8201587550649304e-03 -1.6193824687222725e-03 -2.9632694138897252e-03
2176 5.2629856759464303e-03 3.3740960906215303e-03 -5.4187608621723109e-03
351 7.7270904564442338e-03 -1.8921496089505059e-02 1.3426525764489817e-02
1294 8.1862620836719365e-04 2.7184166631788105e-03 -3.1430179433811060e-03
2195 1.0252149581423675e-02 -5.3544130818926026e-03 -9.0566238515814839e-03
477 -3.1327592319944368e-03 8.9646540613835812e-03 -1.6689953287196396e-02
976 1.9851840352563170e-03 -3.5977552212337210e-04 -2.6681336096752981e-03
2034 -3.0993810222220388e-02 -5.7533657690722400e-04 -2.3094801684433275e-03
2194 -3.1158808231986457e-03 -2.5515418403103227e-03 -4.3180722777612533e-03
2196 1.2043241022462708e-03 -3.6166789876310016e-03 1.0342981997276219e-02
230 7.7321047382928592e-03 2.4216203072336463e-03 -1.9398732283224886e-02
3313 -5.5724130800165542e-03 -1.9413513890676312e-03 -5.0992575182163737e-03
3314 -6.5707164570505102e-03 -3.9118692995916617e-04 -1.8893256279798338e-03
3315 1.2111366316736034e-03 3.6465899260151972e-03 -6.0787893841422157e-03
3316 3.6830416252033806e-03 -9.7392178981675723e-04 -5.3372421660466346e-03
3318 1.3189018235150462e-03 7.9832895985560597e-04 -4.3479899792185778e-03
3321 5.2517157954262783e-03 6.5395312298086056e-03 -3.8321472196509681e-03
3322 1.2497698298344641e-03 -6.3961749629683944e-04 -2.2610893831258075e-03
3323 -4.5291399685586922e-03 5.3498175722698372e-03 -4.6973650056209406e-03
3320 5.3731475009855144e-03 6.6271362879462203e-03 1.2933999949879325e-03
3324 -1.3255158252195988e-03 4.8799268588555319e-04 -4.7534558887430802e-03
3317 -4.7805155286092145e-03 -4.5024737445894230e-03 -6.0249627178531129e-03
3319 1.6098933022180139e-03 -3.7963250235868722e-03 4.1473266275508522e-03
732 1.3722694070525109e-02 -1.9077207216494342e-02 3.3573623060874237e-03
482 -6.7281752828972918e-03 8.5999431321913855e-04 -3.8670179091199200e-02
481 -1.0969501249134558e-02 3.5301859503946717e-03 -2.7016027716121930e-03
730 6.8473003024947347e-03 7.8531034172653075e-03 6.6530521090440581e-03
731 -2.3937119872591988e-02 1.1594192916653473e-02 -1.5539213945732535e-02
2187 -8.8974020572260368e-03 7.6210639624766686e-03 -1.9363491803827213e-02
1710 3.8724233618074380e-03 1.0017814914082527e-02 -6.7689413066674290e-03
2610 2.1608794981996349e-02 -1.4165356678586077e-02 -2.2622854367589342e-02
173 5.1375873959195687e-03 -5.9820638708311677e-03 -6.5230355650101731e-03
699 -3.9147685551169202e-03 -2.6763008664101395e-04 3.5785355638701583e-03
599 7.0410216108603525e-03 -2.3262888342655574e-03 4.4657483017289659e-03
483 1.4263333832331535e-02 -9.6306952410251893e-03 1.2568045196779497e-02
2402 1.1157107521571546e-02 -8.7378620642670681e-03 5.6483013903081886e-04
652 2.7097137708395995e-03 -2.2848240718465660e-03 4.9603915252824414e-03
172 -7.4413922437670927e-04 3.5558138105128449e-03 -2.0587441290179586e-03
598 -2.3356556745851237e-04 -6.5862259948403282e-04 5.3924110337244778e-03
219 -5.9944303777682119e-03 2.7242929907300907e-02 4.2994146315271384e-03
218 2.4301453054757602e-02 1.1998590040338286e-02 1.2913369134826179e-02
2403 5.6274459324093399e-03 1.1088796878086029e-02 -6.2601559767096644e-03
217 -4.9131444590874299e-03 -6.6776786002932104e-03 -3.3805322824702051e-03
2572 -4.3252983470613319e-03 7.1755223404745177e-04 -3.4398794488389272e-03
174 -1.5502267204819179e-02 6.0109373704498562e-04 -4.6767666755949087e-03
2401 2.9690733403008539e-03 8.5429433221181276e-04 -5.1032456869835895e-04
600 -3.1380292766792247e-03 5.2560541607487585e-03 1.1010502735488110e-02
2573 -1.9507773808740345e-02 6.7898781989832258e-03 -5.2703767799105678e-03
366 1.2132821796091251e-03 -1.2829913588585103e-02 -1.1169641376234624e-02
697 -1.4593532661824516e-03 -1.7549824270127695e-03 4.5800293124821350e-03
1409 5.2139921677714406e-04 -1.3251314545772414e-02 -2.4376630126342093e-03
2388 1.1450837848743225e-02 -1.3169885736558622e-02 1.7429998695744700e-02
2386 9.6901742567385399e-04 -3.7003841050810846e-03 6.9821416511137643e-03
2387 3.6239861138902137e-03 1.2972307493944336e-02 1.1385848783046996e-02
934 -1.0741593425137102e-03 1.0683395910567155e-03 -4.0737737734585101e-03
698 1.4457741531288835e-02 2.2370973928097248e-03 5.9207011623492699e-03
936 -9.0030730513464569e-03 -1.5612648140095527e-02 -1.4404015500787962e-02
776 -1.8012224914187913e-02 -9.2765511787271729e-03 9.5451438846633416e-03
2043 -1.1404175592375606e-02 -7.9740065275867317e-03 -8.6834709607447724e-03
2519 -1.4398833428329367e-02 -7.8842961691987846e-05 3.6645880044839600e-03
2423 2.1638489154159207e-02 -7.6698848559125406e-03 -4.9385910431826328e-03
1724 -6.2959771127075223e-04 -8.4419477574758687e-04 1.5265556882166036e-02
2832 5.2499390076676542e-03 1.4727358858740736e-02 3.7736414149331363e-04
2042 -1.9830480356104924e-02 -3.2823197422648775e-02 -7.4377475735016591e-03
2150 5.7229931542662265e-03 -6.8505056033573526e-03 4.3424282949110701e-03
1723 2.8898589242711435e-03 -5.4109231863357955e-04 5.9603822664908756e-03
1333 -1.4373152813375637e-03 2.3878228245420366e-03 5.0225635938574119e-03
2661 -3.0928263162376037e-03 -9.5734901902658695e-03 -1.1166323824061866e-02
1335 -5.7752555667999516e-03 -6.7764579571882155e-03 1.1101944877726977e-02
2019 1.9836692126095103e-02 -2.5083181428159798e-03 -1.7203696469369964e-03
2830 -1.2998145801817358e-03 8.7786788312302941e-04 -3.0640703006430381e-03
313 2.4759405628693013e-03 4.1242898252486357e-03 8.2952362033384477e-03
2017 -4.2439857001059627e-06 4.6983273211570675e-03 3.2514772567085104e-03
1725 2.3124733108638147e-04 -4.2514521592266789e-03 9.4733543766229028e-03
2688 3.2110500046006580e-03 -9.2548863210677179e-03 2.6309925662543913e-02
2686 -2.8061950224476110e-04 3.1744249304092509e-03 3.3079304658179274e-03
315 -2.8778313682240839e-04 4.7237317803686171e-03 1.6636067239377564e-02
2831 -1.4472649591142767e-02 6.2241616381748907e-05 2.3295887509316390e-03
2659 2.4291429300655264e-03 -8.4076071419206445e-05 1.4305186478218344e-03
2149 2.0155449245450922e-03 -4.0793060255058166e-03 -6.7625576464660480e-03
2041 1.6739859976733350e-03 -4.8497717709594299e-04 2.5864626493307995e-03
2518 -5.1625556777417682e-03 -3.2192264625773136e-03 -3.4359630285035322e-03
2687 -6.7853721804469096e-03 -1.8214676248201069e-03 3.5186298739652458e-03
314 9.8498752110072994e-03 2.7630739980098293e-03 6.2719845121648656e-03
211 8.4647497118997409e-04 -3.3131924111616338e-03 -3.3668471319115633e-03
2151 -3.9311671458514569e-03 -9.1822668171054056e-03 -4.9689087608996109e-03
2018 1.6511755419994453e-04 6.3372425178754637e-03 6.5645712931013522e-03
1860 1.2091434933860980e-02 3.6104128124956527e-03 1.8808793762677471e-02
721 -9.4709082434657932e-04 -7.7683751543801112e-04 -8.3296057377364860e-04
2535 7.3809920753837776e-03 8.0263273099303156e-03 1.8270075473759712e-02
2776 -4.2464196972823096e-03 -3.6214856084428619e-03 1.9920932274623774e-03
863 -7.5045103112478283e-04 -9.7561671655660136e-03 3.1087134675137811e-03
862 -1.4148884919043400e-03 -4.6454008642360543e-03 -3.5136249265337368e-03
208 1.1835216070355638e-03 -6.4186321421379807e-03 -4.9490465745499566e-03
2281 4.8547732761969158e-03 -5.5504257513659689e-03 9.1987231394846779e-03
209 -1.9275226858402453e-02 -3.2591951556225881e-03 -4.2574351429887861e-03
2533 -7.9947679784982584e-04 -7.4246218884924369e-04 8.4064069863772507e-03
2778 6.6060670738939658e-03 -2.8011261464708779e-04 -6.4990980122288594e-03
806 6.5444303296558646e-03 6.7619161446505318e-03 7.9960932496697026e-03
805 1.0115230953480355e-03 -6.1695493796539765e-03 1.6597934738656413e-03
2777 -6.9599109278126285e-03 -7.1771939680794804e-03 1.6269015570484612e-02
2464 -3.5264666937630668e-03 -1.1393072261856139e-03 -2.9644141747148852e-03
2283 -2.9090764403944687e-03 -3.8746057781023122e-02 6.8735958686418248e-03
2282 1.1537640842757909e-02 2.8246879765132316e-03 -1.9459879196131843e-02
1803 -2.7815589620893201e-03 5.6446762885484420e-04 9.2571372361566328e-03
1802 -9.6388786376326477e-04 1.9823184732375323e-03 -4.9405861496775740e-04
1801 7.1495512137628844e-04 2.3419793734207241e-03 6.0037966409488717e-03
1433 -2.1767334597923054e-02 2.9518153936118553e-03 -8.0014003376295863e-03
2534 -4.0140140663290679e-03 -8.8723239349369973e-03 1.5388644288197232e-02
864 -1.4325953092950375e-04 7.7496949478981071e-04 -8.2821264582660543e-03
2465 5.4081687765122422e-03 -1.0807337672891435e-02 -8.2488882621751854e-03
2517 3.1924330617066725e-02 -1.9485580737205323e-02 -2.2719299072703661e-02
1278 1.2164757686530444e-02 2.9612856779464608e-03 -1.1222665913019726e-02
1950 -1.0177382465365429e-02 -7.0002165773281949e-03 1.9737215452821488e-03
2516 -3.2584966579945189e-02 -3.5113261774822199e-02 1.0820500907139549e-02
155 -1.5125473527390390e-02 -8.4666801100294273e-03 -6.2937742563742250e-03
2033 3.4867742978617112e-03 -1.3576147672789732e-02 6.8765578185633926e-03
1948 -1.0056095499990515e-03 -4.7767862788796059e-03 2.1091621179431608e-03
154 -8.3070774731329056e-03 -9.8308253731490981e-03 3.3140134278914646e-03
2515 -2.9907821584949095e-03 3.0797113557742058e-03 -4.8766427785676934e-03
2032 -4.8386962741626114e-04 5.0905588902275221e-03 1.0062218205375861e-03
156 -1.5159149493073268e-02 -1.3262524913062016e-02 -2.5297646772994629e-03
1949 -3.7541347512053923e-03 -1.5761246044532391e-02 1.0257978454801669e-04
3325 2.9999134337405928e-03 2.2773323184972099e-03 3.3367794679672823e-03
3326 1.2794988095194909e-03 5.4849022384949259e-03 -1.9016800671367909e-03
3327 -6.3500134287322691e-03 8.1696598394236293e-04 2.0952802759983563e-03
3328 -2.9322577915813744e-03 -6.5752017179918302e-03 -1.7825505108066486e-03
3330 -4.1063915761517687e-03 9.7595426476976125e-04 6.4791981343387183e-03
3332 5.5539015794937221e-03 3.3463192465730336e-03 2.6242648561079778e-03
3333 4.1636271450139883e-03 6.3372526935981006e-03 -2.1690548497196914e-03
3334 -4.9893654564663091e-03 -6.5754760585958966e-03 -6.3933930433517057e-03
3335 -1.7510650533272393e-03 -2.1958078584508644e-03 -3.9089039776732531e-05
3336 5.7196391808063303e-03 1.1181211894681770e-03 -5.0802046663715027e-03
3329 -4.9386486938483489e-03 5.4855360890193735e-03 -4.5872148927950671e-03
3331 -5.1859120393026783e-03 -1.9460674598308831e-03 -4.3302952959759925e-03
2185 -2.6368597423873938e-03 -4.9062945216647820e-03 -1.8258013920800821e-03
2349 6.3522917749921914e-03 4.0900052918489971e-03 -1.3656995653336675e-02
2609 1.3905741891403055e-04 -8.5488002202437977e-03 -6.2585463630871847e-03
2347 6.6683148419652057e-03 -2.7818498069614563e-03 5.6543059449176753e-05
2348 1.4761658484985377e-03 -1.3537637509988541e-02 2.3029007182392876e-02
1940 -1.8494997640346050e-03 -1.2736187667810742e-02 3.6416769716723901e-03
1309 7.0810425581000489e-03 2.8102949388942138e-03 7.7752871668028880e-03
1310 -1.5021993336934584e-02 1.1194017408078825e-02 -4.7142664858670566e-03
1245 6.5550348104478091e-03 -1.3134818980473058e-03 2.3386110180481823e-03
2983 3.8211697373577809e-03 6.6448489335455543e-03 3.7732755776982833e-03
1844 4.5500409547897169e-03 -8.1443061390748823e-03 4.9086343490479887e-03
1845 -4.1999527561953813e-03 -9.0621814237979940e-03 3.2615243837181358e-03
1843 -5.9814246736980409e-03 -5.8666597000706193e-03 4.4392267306034676e-03
1311 1.1234844498094977e-02 -1.7462634968680710e-02 -8.5658795259472877e-03
1243 -2.7074117000453106e-03 1.9163619710497986e-03 6.5486411622373876e-03
1244 -9.4906793134069412e-03 4.4438361798967933e-03 7.4437285137609222e-05
1939 -1.0893752867307755e-03 -5.1271422432746733e-03 -4.3553992310498895e-03
900 -1.6143215541007637e-02 -7.5094295444358763e-03 1.2539703523814179e-02
1941 2.4013580941276667e-03 -4.1131669664679193e-03 -6.5106461566520561e-03
884 -3.1411848122789354e-02 1.7496841732772394e-02 -1.9108202175492799e-02
883 -5.0697352899975170e-03 2.5089286457137525e-03 3.8365722756778255e-03
595 -4.8313423177259304e-03 2.3411201379052449e-03 -3.3545302603397863e-03
1599 -2.3097665228279825e-02 -1.4526993653933417e-03 -1.8293294232400739e-02
2775 -1.5325386912326139e-03 -5.9559881261407703e-03 2.9354917051190752e-03
365 -3.2400867512966175e-03 -1.4540482340656457e-02 6.1675752476297733e-03
2793 1.0367327339183481e-02 8.9114343809511415e-03 -1.4725448494337889e-04
2608 7.2058125611462664e-03 -3.3738021369873754e-03 -3.0355836191327946e-03
596 -1.1081939311044854e-02 -9.2556487493573609e-03 -2.4973493533316988e-03
2159 -4.0782795438810415e-03 -1.4838852920964060e-03 -3.4433919536354467e-03
364 9.6787319442406226e-03 -4.4698520202066938e-03 3.3787372520514111e-03
1059 -1.1623759573613239e-02 -3.4766311073061634e-02 -3.4363347674876534e-03
549 1.1897445956837137e-02 -5.1060752459227907e-03 2.8864708739118465e-03
597 -1.0989269677386396e-02 -1.2539159010889041e-02 -1.5004578716954231e-03
935 -1.8724478469778795e-02 1.4786986656048945e-02 -3.2552595510257923e-02
2096 7.5480324763554313e-03 5.2052355894217223e-03 1.4528044316140531e-03
390 -1.2238060061833809e-02 -2.4934196941331456e-02 4.3115530812567011e-03
2520 -1.0539183213828225e-03 -1.2723352375907377e-05 3.2214909012453549e-03
389 -3.6512244436969436e-03 -2.8280313264675994e-03 -2.0140265897796657e-02
812 -9.0431693444654546e-03 1.1200990049685042e-02 8.9935456070012569e-03
388 -4.3818990069238737e-03 -5.4242312805210359e-03 4.6977280155801709e-04
813 1.5446667629976853e-02 -1.6310905118968214e-02 1.5148687874800185e-02
1057 -4.6383811299730961e-03 1.7501922380640741e-03 -2.8319667546970100e-04
782 -1.1217261836264517e-02 -5.8662053468546121e-03 -2.4180497293121544e-04
2361 1.7089619459337509e-02 1.9585109577029493e-02 -1.5161464576629089e-02
1058 2.6523899303697775e-02 -1.1363548900352391e-02 3.7148649360352038e-03
781 1.6909901949782639e-03 -1.8484149114577557e-03 -2.3509946385854349e-03
1041 -7.6812645008529088e-03 2.1995927918834039e-02 3.1633523056393824e-02
1040 -1.0222749553809184e-02 5.5662346571022309e-03 2.8245243885994392e-02
2596 2.1629034684640266e-03 1.0833279522802906e-04 1.3385071220549894e-03
1039 -7.4227885628960267e-04 2.7272909314612634e-03 7.2784006887454062e-03
1045 -3.0003527517258482e-03 3.2510761009188130e-04 -3.4086486578724321e-03
2598 -7.8914026759220740e-03 -3.7176520717476093e-03 -7.5767727727775189e-03
1859 -7.8966596604111480e-03 -4.6090893003317276e-03 1.5798125195725270e-03
1047 -6.4564285412460152e-03 5.1467883672646894e-03 -4.1395197445269422e-03
1046 -1.7852201635814218e-03 -5.0405863433088576e-03 1.4911423190178993e-03
2637 -4.1970748895557037e-03 4.6744567571907446e-03 -1.6001236587006567e-02
1858 -3.4374931562731995e-03 4.8791062469663183e-03 3.3749171118985215e-03
811 -1.1184326110940297e-03 -3.5847299937854404e-05 -2.9986927997047441e-03
212 8.2245312751758823e-03 -2.3915072397707165e-02 -1.4516740012683868e-02
1487 4.8550485971783552e-03 1.3376694023333156e-02 -6.6970111200648982e-03
2202 3.2350441074801679e-02 -6.0762114898217472e-03 5.0656620086256534e-03
1544 6.3695259208117350e-03 5.1133447595525273e-03 -3.8752953427549598e-03
1623 1.2858518050241213e-02 -6.3987642504391880e-03 -1.2106461014347539e-02
1144 3.3459582905253884e-04 4.4033395991607991e-03 7.1546833393517761e-03
2803 -5.3464987633077129e-03 7.5329075251148866e-03 -4.5000774139279031e-03
2436 -2.5293573914699709e-03 8.0658061056891898e-04 -4.7359044513090344e-03
2597 -1.3817036579023247e-02 -1.3441604650869205e-02 -1.4659587920109620e-02
1319 2.5101086924981717e-03 -1.1518898591886321e-02 -1.7511174542382078e-02
1488 -1.5031841219519677e-02 1.9136732526258065e-02 -1.6714006407137612e-02
2200 -5.4120517638093038e-04 4.4563320564658230e-04 -2.5448333495860002e-03
1476 1.8454792934516670e-02 -1.1148531134452055e-02 -5.7097996373883389e-03
1486 3.4047319394159498e-03 2.2025200745233184e-03 2.9293248834711991e-03
1123 3.4530998656038016e-03 1.4122702403715024e-03 1.1060227017161701e-03
1543 -4.1230266031687625e-03 1.5339420532481968e-03 2.0906702685003341e-03
1621 3.4556227214428518e-03 3.3102916263420025e-03 1.5336161485112233e-03
213 8.3346379411447721e-03 1.9483088220729052e-02 -2.0908752265594892e-02
1575 -7.5914239276941235e-04 -1.6848566356344252e-02 -1.0549806674058243e-02
1124 1.9035548081396243e-02 -5.2708542731645311e-03 1.3242588604792535e-02
1622 1.5539012473270409e-02 -2.7409907487191240e-03 1.4925892006700558e-02
1545 9.4236632928774329e-03 6.2403244352440303e-03 -7.2280668708720316e-03
2718 -2.3890186919330609e-02 -1.9612730773624621e-02 2.2129088743988563e-02
493 5.0125300165626014e-03 -2.5577154359178143e-03 2.4028644396077770e-03
2717 5.4878722941040028e-03 -4.3663042970326265e-03 2.2122904060923394e-03
2716 3.2582995387532088e-03 3.2802165933920786e-04 4.6709400919595434e-03
2948 -9.5462287767613951e-03 -4.0201576911761379e-03 3.0614297339718244e-03
2949 5.3096243015662830e-03 -1.1423021035445962e-02 1.2397908908932182e-02
2947 1.6891645538243327e-03 -5.6560451595893419e-03 1.9816907980677086e-03
2435 7.4658320352136423e-03 7.2958610764191165e-03 2.5695815934513727e-03
2434 5.3561979241830270e-03 -4.0659675772773923e-04 -1.4488406382803644e-03
495 -1.8455138556613744e-02 -4.2696412708850769e-04 -5.3211466123149623e-03
2804 1.6876895274598638e-02 1.2050400196929306e-02 -7.8288572309071006e-03
807 -1.5650994029657805e-02 1.1619399147399933e-02 -2.3124800050557753e-02
1759 -3.6594673461441381e-03 2.6465329503719223e-03 -7.9756059831089529e-04
1760 -1.3165376035833695e-03 -1.5326308483881990e-02 -6.4722461401691496e-04
1276 3.6038513364379577e-03 4.9513182434946304e-03 -2.7298982010777275e-03
1042 7.1942100716529075e-04 8.6398359108171745e-04 -3.9672363988042603e-03
1474 5.8227957278852022e-03 -2.4402524886044568e-03 1.5367347598112843e-03
1475 -5.2699365397584404e-03 6.9210369345769403e-03 -1.5567204281081634e-03
774 7.8363410937336841e-03 1.5742199972787609e-02 1.3576493715108790e-02
1044 2.5324345676722019e-03 -8.7644849761408395e-03 5.0368524656978783e-03
1277 -6.8875088527704082e-04 -7.0739552250379881e-03 -1.4574021983042873e-03
1761 -1.6856450116387041e-02 -3.3257917826343972e-03 9.1099368643027968e-03
3337 -6.4772896612281311e-03 -4.1289791678145015e-03 2.1279118200205195e-03
3338 -1.3789816026801949e-03 -4.4210695617582013e-03 1.5917579425206000e-03
3339 4.4173581223840861e-03 2.4224005404279983e-03 5.2349748163167567e-04
3340 4.0009461544368470e-03 6.5832650215495994e-03 -2.4246418809062750e-03
3342 -6.5567531613094660e-03 -5.8059660309403814e-03 1.5995300153121286e-03
3344 4.9385445739175257e-04 6.4342601659906438e-03 9.1894166702510176e-04
3345 -5.7602643675920481e-03 2.1046181687896263e-03 -4.9805866289657167e-03
3346 4.7049126297141707e-04 5.9020865452472690e-04 5.8417735048747078e-03
3347 5.9014549502471713e-03 2.3424830627970651e-03 4.5551705324626659e-03
3348 3.9341140739181284e-03 3.7839773066974856e-03 -4.5973643336328250e-03
3341 -5.5918886168923832e-03 4.1998150898475599e-03 -5.0698921106405326e-03
3343 1.6559796292363754e-03 -2.8657410482393259e-03 -1.7766718217317686e-03
2537 8.5988369252457970e-03 1.0139398250360195e-02 6.1553165081073245e-03
2536 -1.1550421072525561e-05 -3.2466486931300165e-03 -1.0098857417618575e-03
2340 3.9860680860784852e-03 -1.0712954786711500e-02 7.2161858089143131e-03
2538 -8.4860493621524043e-03 -4.2227057888443425e-03 -7.1266298751424019e-03
2338 1.3198434273226861e-03 2.0849189815312264e-03 5.8522437241095666e-03
2339 -3.9800951044039624e-03 4.6270946427488914e-03 2.3239478065082052e-02
1195 4.0277795367887302e-03 3.1050688220648098e-03 -8.4274099626387817e-04
1196 -1.2406777090435087e-03 6.2977329313070709e-03 4.2422225086194091e-03
548 -1.7201637007202192e-02 -1.8738779761248480e-03 -1.7096043545997412e-02
547 -5.9549736273771499e-03 -2.1318745627171565e-03 -9.3915243218106684e-03
1224 -9.4663006206798239e-03 7.3815120990474437e-03 -1.2689614923756740e-02
129 4.8761637993994843e-03 -1.0102560412158996e-02 -1.9921191759931983e-02
2315 -1.3507354486157233e-02 5.2534270860843510e-04 -6.6279048070470642e-03
764 3.5086769023465721e-03 8.6889469306448020e-03 2.2179669366403948e-02
1033 1.4288779329120751e-03 3.2276668208363591e-03 1.8995488129028763e-03
1222 -1.6967002015580868e-03 -5.0838338106056341e-03 1.2682960407719500e-05
2743 -1.2820685057626862e-03 -3.0818673186823759e-03 -2.1453944879445395e-03
1597 1.7791998708274063e-03 -7.2794932626783970e-03 -5.8387896800596644e-03
2314 1.9625722729688000e-03 2.5901197210487503e-03 -1.0491092829763972e-03
933 1.2020367918076648e-02 3.2365729871590698e-03 1.1111980245821584e-02
1598 -5.3044165897883737e-03 -2.6199885821479779e-02 1.4272822012860870e-02
2745 -1.5186458099339299e-03 1.9609192783130508e-03 1.1636182211577520e-02
1223 2.5285089129218272e-03 -3.2119559880637548e-03 5.4535672461391484e-03
2160 -1.3107470481414325e-02 -1.0953593595073387e-02 -1.9956696474178611e-04
2316 -2.0412875118994686e-02 1.5555393064317252e-02 1.7067149739998334e-02
885 1.7005672353762958e-03 -3.7161878868600482e-03 -9.7451910611439010e-03
1176 7.0352300151052998e-03 4.3979212756266420e-04 -2.8351781001113661e-02
2158 -1.6653843430025461e-03 -2.6324227378477335e-04 1.9892145821416699e-03
1197 2.0079345496686905e-02 -1.7912830263924757e-03 -1.8615311360358294e-02
765 2.7943202765494000e-03 -7.7564145745081725e-03 8.2771076920870983e-03
2433 3.6347391583134589e-02 -5.0159093719478638e-03 1.0873383336353159e-02
932 -7.0848474185423278e-04 -2.2401113763374302e-02 -7.2918275718737383e-03
931 -3.9729521914735422e-04 -4.1252634120023798e-03 -6.9361688762722767e-04
2431 -1.5117181080825817e-03 -2.8101126014241349e-03 -3.3345618907626106e-03
1174 -4.3344627703945614e-04 5.8314045635359879e-04 -2.4681862485824296e-03
620 1.1370610605991763e-02 -8.0327939471915612e-03 1.1607126153004525e-03
842 1.9866708834286966e-02 -2.9410767546003875e-04 1.3572303709526416e-02
2635 -2.8182422048216488e-04 -6.2831038885203016e-03 -4.7120183471767891e-04
291 4.3385411720665590e-04 -5.0981576309460634e-06 1.3323566569104491e-02
2744 -1.4776388810641526e-02 4.3392816400290319e-03 -9.8243467599996304e-03
2601 1.9149539266997095e-02 1.7966539718351953e-03 2.9639980040640935e-03
2404 3.2333929449350901e-03 -9.9620117795627379e-04 4.1554783528806221e-03
2653 -2.0086174970987605e-03 -4.9973370047236730e-03 -2.6548241868177905e-03
790 3.6971728935063643e-03 -8.7161470375041552e-04 2.8565850160172674e-03
619 2.9708855232443991e-03 -3.3072698648184337e-03 4.9323451432147702e-03
621 -6.6876500621855456e-03 4.2178583776863645e-03 1.1398202978319236e-02
904 -3.7925656284815679e-03 1.8225386398477515e-03 -5.1796017588943985e-03
55 2.5684146895963429e-03 2.9282750093626801e-04 3.1779345113277474e-03
304 2.3627516127571655e-03 3.0912048639404953e-03 -5.1534679275450027e-03
2588 -1.2543784173307081e-02 3.9869926924156827e-02 -3.3437628601127199e-03
305 3.4665827292675888e-03 -1.4707233380908829e-03 -9.7583699479580153e-03
306 6.7873310243355446e-03 1.2222823579835472e-03 -1.4759323322308225e-02
843 -1.1496550711140578e-02 5.2350717072748704e-04 -1.0512443105068022e-02
57 5.8762571131044791e-03 -1.7562555748573263e-02 -2.1321094216287919e-03
2587 -4.8960325856553044e-03 5.2447763220132932e-03 -3.8442567132814728e-03
791 8.2470974033597658e-03 -2.7409806598611944e-03 1.0583608299210170e-02
841 3.6538465921269565e-03 2.6754524213838918e-03 -1.2971000132166990e-03
906 -1.1864676206801679e-02 7.5253981650117222e-03 -5.3033406919440066e-03
56 1.4977126115548437e-03 6.3331428692031877e-03 4.5476711270033806e-03
2405 4.2951966351918369e-03 -1.3482909229451494e-02 1.2161355727188820e-02
2636 -5.8493383775156827e-03 -9.4321290639186109e-03 1.2616973821872603e-03
2655 -1.2700576299016986e-02 1.4760208782172311e-03 -2.6020310267477104e-02
2600 1.2692841961691740e-02 1.7457409689687155e-02 1.0409046509136526e-02
2406 1.1947406413299343e-02 5.2721605227642786e-03 2.8011011017399105e-02
2599 6.8367128938824195e-03 -2.0864165454634181e-03 -5.5126098081003279e-03
2654 2.4263360626138791e-02 2.0365342624743741e-02 5.6857190118472329e-03
783 -2.1918114450850797e-02 -1.0300364382667310e-02 -2.0763763638631154e-03
905 -1.0607789303191820e-02 4.5894758829069082e-04 -2.8351416471042224e-03
98 -6.8502401717832236e-03 -1.7785361095060615e-02 6.7129472721453552e-03
2201 7.1409212283012006e-03 1.2223730297624911e-02 -2.2645990601835270e-02
1016 1.3460404054856402e-03 -1.3418681554178328e-02 -5.4540221232855365e-03
1972 2.2181557220109648e-03 -1.0903538958082614e-03 1.3418658476531864e-03
902 1.3853887604395217e-03 5.5640366231377665e-04 -2.6836168588038069e-03
1825 3.6283487864407003e-03 2.4346639885513186e-03 -3.2326843260393739e-03
1318 2.9469757145466095e-03 1.9993328375220230e-03 -1.8228386439609553e-03
1826 -5.3774467622160777e-03 2.0536807340412785e-02 -2.6940727739971151e-03
97 -1.6241823531138845e-03 -3.6719873900343016e-03 -4.7791690480323539e-03
99 -3.6821819234577266e-03 2.1074288377651830e-02 1.6476251412419780e-02
903 4.8247141283925795e-03 1.1993378068777701e-02 -1.8334529727441116e-02
1320 5.4130481025370372e-03 8.8475981354357702e-03 1.6007840964256049e-02
245 -1.5213229318922878e-02 8.9416382074839311e-03 1.4589399229991380e-02
870 -3.6052642736695700e-03 2.1623192497715531e-03 -1.5324800582533826e-02
868 1.0013291908238357e-03 -4.7890512105981355e-04 6.9325044647387693e-04
901 2.6494285528674169e-03 4.2062504159176214e-03 7.3507899862608830e-04
1974 -1.0295324874088133e-04 -8.1278753193673829e-03 1.3896648766430117e-03
1827 -1.9855461902288526e-03 -1.6209620102507448e-02 -5.7235424233863423e-03
869 -9.2514867813901312e-03 8.0392061275458924e-03 8.5675332341811090e-03
244 5.2169865270688034e-03 4.6059139340297621e-03 3.0523246453346554e-03
246 2.1445889178512527e-02 -2.1412637891948402e-02 9.5247628044324074e-04
1973 5.3962464566645841e-03 3.8081766963596795e-03 -8.9086002447796315e-03
1125 2.2576050994091157e-02 -1.9190693212597972e-02 -8.9361217335451465e-03
909 2.5913302234134870e-02 -3.5202938568475409e-02 -2.2378392744577008e-02
907 4.9358558943631333e-03 -8.8989012406966005e-03 -6.4301480110111244e-04
1342 -3.3983155680735611e-03 1.2416182425348669e-03 9.8361886119359746e-04
773 -2.4768098101997312e-02 9.1579521965381543e-03 -1.4492206320443587e-02
1804 -3.4426724490978513e-03 -2.8667459925693266e-03 1.1061418504108003e-04
1805 -2.9863041280918726e-03 -2.0392804311363815e-03 5.3542287950279852e-03
1806 -1.5902529875180046e-03 -6.2609859248755513e-03 1.3002717063228104e-02
908 1.3675633573538143e-03 4.8817526949279672e-03 -4.7889901423600227e-04
1344 -8.6186738719096108e-03 8.5525234629642045e-03 -8.1088963633303723e-04
772 -5.8618659600030883e-03 4.7138454367019796e-03 -7.3886391239901298e-04
3349 -1.2854560658556685e-03 -6.4993217765228675e-03 6.3588697043513156e-03
3350 -6.9425151688833783e-05 -3.4957713139349296e-03 2.0116112304781753e-04
3351 1.9899669912827704e-03 -5.1162555407919530e-03 2.2676851962417695e-03
3352 1.8788870105087259e-04 -5.4787949025076146e-04 5.6336103788563524e-03
3357 -4.5526602280681200e-03 -3.1340268915703525e-03 -2.3895612531927434e-03
3354 5.2221831238102520e-03 3.7143612106726662e-03 -8.3295829936679054e-04
3356 -1.8685347701305371e-04 -2.9918677123603739e-03 -7.4048188801931669e-04
3358 -2.8928445972686190e-03 2.2479861845786401e-03 3.6467485300076038e-03
3359 -4.4867661839641535e-03 -2.7616566093992376e-03 2.0595446856780026e-04
3360 2.5197616053807591e-03 2.2552100482206754e-03 5.0102794513320432e-03
3353 2.0328705498947443e-03 -4.3238178114432552e-03 -4.5533270889346758e-03
3355 1.8195832894773512e-03 -9.4310492615600611e-04 5.7326829587175969e-03
2104 -1.1618591611758321e-03 1.8266483301789531e-03 4.2856816249811202e-03
2105 8.1705166202073881e-03 -5.6332440851042474e-03 -2.7913171012824780e-02
1175 2.0426566105119746e-02 -1.2340129366259799e-03 -1.9422416376507256e-03
717 5.8369773054418734e-05 8.1212810494946212e-03 -7.7109774629954154e-03
2106 1.7331585282694417e-02 -3.2310466658419562e-03 -1.0397881302706125e-02
1909 -3.4215860887927985e-03 -3.6147323263241082e-03 1.1084745437927925e-02
159 1.6778447525615935e-02 -8.0229945539568061e-03 1.6995031230956660e-03
157 -4.4897468172188050e-03 -2.4390498483347562e-04 -7.2630155879857836e-03
1910 -8.2085429375144629e-03 -1.8444526119282139e-02 1.7625859670815487e-02
1945 1.8079174673248661e-03 8.2417819080683064e-03 -8.9717482636758657e-03
2930 -1.5743679709746366e-02 -1.8913089856493891e-02 1.9554521673811082e-02
2180 -6.8764424606443776e-04 -9.7266903593757181e-03 1.6973571760624524e-03
2671 6.4086108491388588e-04 -2.4848961063930462e-03 3.7120843073758627e-03
2575 1.8327236925279665e-03 -1.5202769995486594e-03 2.9771114953081731e-03
2577 -2.7764451983483141e-03 -8.2845129067691155e-03 4.3494039272200880e-03
780 4.2811121819843502e-04 -1.4610132520319643e-02 1.0523556389704432e-03
1911 -3.5851076257219280e-03 2.5526832701586928e-03 1.9852251598319003e-04
2931 3.6504478054967850e-02 -3.3677610008958215e-03 1.8434400869737366e-03
4 -2.4981879141388846e-03 -3.6444301214925584e-03 2.5264124911538884e-03
6 1.3187739725075164e-02 6.0728403091905294e-03 9.9895133135338059e-04
778 -1.4879608649163317e-03 3.0484135177669022e-04 4.7090664487608406e-03
5 -2.1018705310880254e-02 -6.8202465532795301e-03 -8.1677289230156838e-03
2673 1.8473838382559168e-02 -2.5240652807698893e-02 2.2318733262553115e-03
779 2.2671619050972289e-02 -8.3492803736781168e-03 -1.5592570492837187e-03
2432 -5.7274906919671823e-04 -1.9753228137567740e-03 -6.6936356742039425e-03
2929 7.3936433596505531e-04 6.8633935265545419e-03 -7.5364054033722871e-04
158 6.7553244034160784e-03 -1.3855879234830580e-02 7.8598395261685883e-03
2179 6.8815254077423044e-04 -2.9226192315062864e-03 -5.4349603261130014e-04
227 1.0492484465732813e-02 -2.0540565004661740e-02 2.3648171415677627e-02
1071 1.3371876550767442e-02 -6.4065958524924665e-03 -4.6606778709903070e-03
1628 3.2779024633218584e-03 4.1937918068891342e-03 -3.5565262415565048e-03
289 -2.0473570631189633e-03 4.5448820279774095e-03 5.7825202220130670e-03
833 1.5148049217738191e-02 5.0617458943002800e-03 -9.2494430978932365e-03
2589 8.4182989555224748e-03 -8.3029516753113878e-03 1.6640104811417537e-02
635 -1.1100425058936627e-02 -1.5546833609648434e-02 5.9236785795036854e-03
636 2.6802451722318321e-02 3.4035908426645459e-02 -1.9309622173780642e-03
139 4.2644308793960322e-03 2.7957672388896947e-03 -3.3851266026478045e-03
2753 -2.3340025993057161e-02 7.7455051874804129e-03 -1.9780717365297542e-02
397 -5.4546764701504419e-05 -1.0598516137951493e-02 -6.4214496961536548e-03
398 4.4667159607093228e-02 1.0337104827798562e-02 3.3564988459079299e-02
2752 -6.1591373318585583e-03 4.5297292937897769e-03 8.6131141378853091e-04
660 -5.4267985327943894e-03 2.5267190594407043e-02 2.7006073769882153e-02
658 4.3996065713064253e-03 -4.7081583227869900e-04 4.2557149854323259e-03
659 5.4564796918812070e-03 -4.1906151854034741e-04 1.9266803863708704e-02
140 -3.5924287747321824e-03 7.2372317413144250e-03 -1.0526559215185492e-02
399 -3.8962298569931077e-03 -8.9034462239192588e-03 -1.5009557042680723e-02
834 2.2310298041374469e-02 -1.4930291113012662e-02 1.1174767444316542e-02
137 -1.5647879020389794e-02 -6.7371625669373240e-03 -1.7018999777940658e-03
141 1.3669008265619609e-03 5.8511928805210474e-03 -5.3807267628520356e-03
2882 2.3509820500553402e-03 4.6793915003679179e-03 -5.9244438239085227e-03
2881 -1.3382740251373850e-03 -5.3027662052918855e-03 -3.7128292063555307e-03
568 3.3545632790899669e-03 -4.6519083975074954e-03 -5.0410191900315277e-03
1769 -1.4538845687037782e-02 1.7708033574280059e-02 6.1878028050816975e-03
570 2.0359418973879207e-02 1.0043154922419870e-02 -5.5878937641106064e-03
634 3.8079874378453725e-03 2.8804777456246703e-03 1.6303639319013637e-03
832 -5.2935204117154537e-03 4.2098300068923048e-03 -4.8962472335483754e-03
164 -3.6943538965221539e-03 9.9540275411648463e-03 -3.4396288205372581e-03
1343 9.9406128686997646e-03 -4.5101461758779047e-03 -1.4095062459343064e-03
1944 -8.5522651841850351e-03 5.5235947798004817e-03 7.3135362675278322e-03
2263 -6.5620787757475127e-04 2.8955716648440119e-03 -2.5771250541788506e-03
1326 -1.5294041514612342e-03 -1.2535322612409212e-02 -2.3234218780552936e-02
1943 1.0332475857837054e-02 1.2565391038178154e-02 -1.2325245088833472e-03
1995 -3.5918864123910175e-03 -1.5942075774920531e-02 1.5020609254058924e-02
584 -3.2998952064541361e-03 -1.7055572439746775e-02 7.8432300691298501e-04
583 2.4584402065790280e-04 1.5893189975055844e-03 -7.2018731590421810e-04
2754 1.5614335515373256e-02 1.5812613214809274e-02 1.3319074815299771e-02
2265 -1.0223711493458441e-02 -1.4521198478365225e-02 -2.2844831132880477e-02
2264 1.0229939716921857e-02 -1.0038333237810520e-02 -2.4746489677763731e-02
1547 -8.6328738265468493e-03 6.7038777584475396e-03 -3.0150008235831239e-03
2324 -8.0393540293730581e-03 4.3038854378864861e-03 4.3451359135453704e-03
1942 6.0350383996628397e-03 -2.6229391487341443e-03 4.0399834378259149e-03
163 1.7913867740963073e-03 7.8697918199219577e-04 1.2255254296548411e-03
1546 -7.9445150063998916e-04 3.6339299537113505e-03 -7.4693528564426953e-04
165 6.0829208467969246e-03 -5.8150526663116970e-03 4.4074936211160268e-03
1994 -4.2426956607036666e-03 3.9752474796091842e-04 1.3492092088776686e-02
1548 2.8669110703126461e-03 -4.1288712270597314e-03 -5.0222947478118065e-03
1993 -1.8105196633394053e-03 -4.1132405362799820e-03 -1.1290459491270002e-04
1325 -1.0753308918432144e-02 -1.7294046725350579e-02 7.5883889856546410e-03
1324 2.3136832101771855e-03 -1.3090389247538300e-02 1.4260472950006183e-03
3361 -3.4414651707117957e-03 -1.4035239581050719e-03 3.8931552132604997e-03
3362 1.8855763354579760e-03 1.0931898970003408e-03 2.7367017079329443e-03
3363 -2.0000801829309192e-04 2.6769870246981255e-03 -2.3515107927862045e-03
3364 -3.6344648664383816e-03 -3.8548866554073305e-03 -6.3757963060651415e-03
3366 -1.5447033900284402e-03 -1.9270862056164927e-03 -5.4402098756437178e-03
3369 -5.2423851656953806e-03 -4.0450008492320120e-03 -3.4651030818002703e-04
3370 9.5202947164843631e-04 -2.7640962643404481e-03 -7.8134435825142994e-04
3371 2.2821532628203023e-03 -2.9686869437583101e-03 2.0375388957512494e-03
3368 6.6609117997592261e-03 1.4355681448105840e-03 -5.2134622420620469e-03
3372 3.3058746812891077e-04 -3.1686074166363482e-03 3.3166199243367541e-03
3365 5.4676554110788371e-04 2.0205846504030168e-03 -3.4339076085972650e-03
3367 -1.3329340217379108e-03 -4.1416908870359074e-03 1.9006163064881401e-03
2328 1.3833409127828407e-02 5.2238917117871306e-03 -1.3692670648930287e-02
1069 3.8598946554425284e-03 9.9949488364307589e-04 -2.0297049026149544e-03
2327 3.9814250748973126e-03 -7.5798420842079096e-03 1.5244320364157063e-02
2326 5.8265747930662621e-03 2.7904681708258747e-03 4.0026994768650364e-03
340 1.8224524051743823e-03 1.7736135866414475e-03 -2.5834165881608528e-04
2530 5.4085985931369776e-04 -3.1959576540483013e-03 -1.4586462614793400e-03
1290 2.2115227110981568e-04 -8.6218077832461836e-03 -7.5692263679407483e-03
1288 5.6816394561835810e-03 -6.2811673657036185e-04 1.5622065288628771e-03
2353 -1.1080115024766780e-02 7.0488307951747818e-03 5.7406959781824821e-04
342 -4.0086925057208735e-03 1.9260445540211196e-02 -1.0693225686284296e-02
1289 1.3878007410299157e-02 9.5727363852443962e-04 -5.5345161375922498e-03
2355 -1.0518601413757366e-02 3.4153332507777688e-03 -1.9827302924748636e-03
2354 -6.2612902206536057e-03 -2.2246064823606377e-02 -1.9822739784602847e-02
2531 -6.3937526852597577e-03 1.1078264188173271e-02 9.5499353337663608e-03
2532 1.4109928578261221e-02 -5.5609838201520871e-03 -1.2516707934881868e-02
2799 9.9998680185315221e-03 -1.7843525597113791e-02 -7.9446353696641069e-03
2039 7.9958372888655775e-04 -2.7529637120390048e-03 -1.2141497965306631e-03
2038 -5.6009960941197706e-05 -1.9563419194856308e-03 3.0335705021710161e-04
222 -2.3510951749051261e-02 2.4362550272880542e-03 4.9130799491209267e-03
226 -5.1284203259200850e-03 -6.0698799878094291e-03 -4.9294694576869249e-04
228 7.0696833353047737e-03 -1.3456402362953280e-02 2.6577950867521946e-02
1629 -1.3900995159444502e-02 1.9282710661550535e-02 4.0263053993241380e-03
2798 9.9589764457881213e-03 -2.1789792348336903e-02 2.2562202024304884e-03
1881 4.0915092055760572e-03 2.5523626366965937e-02 -1.5686044622635162e-02
2709 1.2497441711694441e-02 -2.6830163228325262e-03 2.5457025898760408e-03
971 -4.0911726458858705e-03 3.2109873706655813e-03 1.6788811495076741e-02
970 -1.9319911328266701e-03 -3.7566457540799394e-03 1.2181745567934152e-03
2797 1.2195438158913074e-03 -8.3667942956805047e-03 -2.7821580864626795e-04
2040 -1.0914026083650335e-02 3.1121110635692266e-03 1.5735787974645834e-02
220 -2.4340192542132086e-03 5.1261900893151951e-03 6.2362345271414700e-04
341 -8.7226159176334375e-03 -1.5739015364480174e-02 -8.5420307365762366e-03
2991 -1.4931580889621953e-03 3.5810349120262140e-03 1.8915096981785328e-03
1947 -1.6590817109561926e-02 1.3248324493754434e-02 1.1798192567043229e-02
1946 3.6204465982184131e-02 -1.7146593215047915e-02 -6.9945993622224220e-03
2768 1.9597669322602703e-02 1.7379408015692547e-02 -5.9871037872861162e-03
2883 7.2208465589737236e-03 1.4613886261754142e-02 -2.4414234669028836e-02
356 -9.6721853831888659e-03 5.5902798035031174e-03 -6.2732429841449279e-03
136 -1.0444050035780066e-02 -7.0549561296256102e-04 -4.3012423994026657e-03
2919 -7.7443610956710656e-04 -6.2084644807773644e-03 2.0193828546721006e-02
138 8.4570874309574315e-03 1.5914718099694108e-02 1.4883723428382227e-02
2156 1.1308436595972199e-02 -1.0000711415243247e-02 1.7320189589464404e-02
405 -5.1645230820802027e-03 -5.2793152961887321e-03 -1.2138442017111558e-02
403 3.7533243976172834e-03 -1.2027690796592298e-03 2.5386766390149353e-03
525 -2.5219799110699201e-02 1.0535641517350865e-02 -4.8649330023262296e-03
514 -2.9141240717867048e-03 1.3139652851638908e-03 3.9340097903295375e-03
1350 3.4902043555072918e-03 3.5706203346087986e-03 5.1738287740326298e-03
1349 1.6245872864307333e-03 6.1738125783019628e-06 -2.9632989158190613e-03
1348 1.0167405908446171e-03 -9.0758885661199745e-04 2.5855211195171313e-03
2488 -9.6919394535997078e-04 -4.4430030527570566e-03 2.5619503443740812e-03
404 3.5910306441498785e-02 -5.8891225032678754e-04 -1.5982995583453199e-02
523 -2.0514137935174355e-03 1.8405728367450463e-03 1.6595366724020883e-03
758 -1.7745724487671245e-03 8.0195570813367534e-03 1.1702885600967961e-02
757 -5.5920169472067102e-04 -7.0577969401548182e-04 3.0799275693178156e-03
759 -9.9052356406347363e-03 -4.4657299998218493e-03 1.0679903628945230e-02
524 1.2052175451319027e-02 -2.2978588331837704e-02 -9.7351825945102201e-04
2769 2.7027938184682281e-02 4.5653812678560240e-04 -1.6212520733721457e-03
2490 -5.5249247887325850e-03 -1.4757222113376503e-02 -3.8325037061768398e-03
2155 5.4489553428569391e-04 -4.5810167419498022e-03 -3.1007139224862798e-03
2767 -2.2808234872468370e-03 5.7232475559813737e-03 1.4049661902976907e-03
569 -1.6043773182345511e-02 1.1392926032120197e-03 2.8530740386618091e-03
2157 1.6428422423600587e-02 9.8761056426540407e-03 -4.8142325752919060e-03
2982 -8.2414191155568868e-03 1.8642738521322262e-02 -6.1548224130035549e-03
515 -9.3467875745326893e-03 6.4181751114003611e-03 -1.4072246355516396e-02
913 9.5659500675317477e-03 1.8134402661606520e-03 1.0473449455919112e-03
574 -2.3149579658597436e-03 9.1949738928043413e-03 6.4301100392330978e-04
692 -4.0446312396548818e-03 -2.9323634582370159e-03 -5.3081360236824559e-03
1618 -1.4477541680955170e-03 2.0768432400517585e-03 4.5884629585836566e-03
576 1.1765737882852314e-02 1.1079697395368930e-02 -6.8030698501911607e-03
516 -1.8462397077880947e-02 1.4977059479128030e-02 -2.0672190213109357e-02
575 -1.5991769522540809e-02 7.4176869277645247e-03 -3.5198660663529487e-03
2323 -2.9915396087663556e-03 -9.5937490244430031e-04 -5.1127075513056931e-03
643 -2.6760260908770549e-04 -1.0179140277727643e-02 2.4894737991433507e-03
2107 -1.9898170323162752e-03 -1.1953116925336430e-03 -9.9055217970467971e-03
2325 -1.1876700948376449e-02 -1.3805454476166056e-02 -7.3344627139540633e-03
386 -1.1946372626489801e-02 2.1958326033196814e-02 1.3140239153126511e-02
1619 -1.2967857915314188e-02 -1.9918396269102603e-02 5.9572543838463917e-03
2109 4.5781707406392932e-04 -3.2721497352626158e-03 -3.1632407609003261e-03
915 2.2898043037205703e-03 -1.0601564156741619e-02 -1.9996714235977493e-02
1620 6.0366233585999556e-04 1.2473555449281854e-02 1.3006387764012455e-02
2108 4.7409511546468918e-03 -8.2871366972099205e-03 2.0550229470806440e-03
693 1.9927114044624897e-02 1.5156497555186797e-02 -2.9419688681789047e-03
2549 -2.6141134860630875e-02 1.3802192828206305e-02 -7.7619919331214267e-03
644 -3.0611969403256355e-03 -3.2891240932783044e-03 -7.4382335273918063e-03
2548 4.0811333292373169e-03 -2.7415456340348118e-03 -2.1733255930241843e-03
691 -1.7599886895068347e-03 -3.9289142114899206e-03 1.8405801517390403e-03
914 1.5534741920793998e-02 6.6522069511569682e-03 8.1929014284933856e-03
645 6.5502925168820607e-03 1.1743358025565634e-02 1.1178347138157794e-02
3373 -4.0754362378164332e-03 1.0345626552405412e-03 4.4495331138740780e-03
3374 2.5278783306681776e-03 5.2864060534849400e-03 -3.3619140203002586e-03
3375 -5.3665785757787896e-03 2.8060685150165395e-03 6.2580814025262324e-03
3376 -8.5189909539548905e-06 6.4158673142342276e-03 -1.4205242321675901e-03
3378 5.6184905802260368e-03 -4.8765138285992680e-03 3.3311438269778295e-03
3380 -4.9674201212207341e-03 2.1159374827349189e-03 -1.4781254109993056e-03
3381 2.8269977833189964e-03 3.9120043111887911e-03 -3.7185484450606780e-04
3382 1.8235463211214405e-03 -1.0297350341356636e-03 3.6544624588398262e-03
3383 5.1132903888562219e-03 9.5066567360358335e-04 -5.0476753044105043e-03
3384 -6.6413873743125231e-03 -1.0165008391718148e-03 -6.7565281441325331e-04
3377 -2.7922126648672664e-03 -4.4102088081168593e-04 8.8707956615976158e-04
3379 -6.8095169956255671e-05 5.5185710754717104e-03 3.7467182200419721e-03
1634 -1.9447860485186038e-02 -2.8609309884953232e-02 1.5601305105878682e-02
1855 4.3796035161515366e-03 -6.3481101945857205e-03 -5.6694247604339590e-03
328 -6.3474945999638975e-03 4.5595414836518315e-03 1.3822573108835439e-04
329 -3.9175337210584863e-03 2.4323654753186817e-03 1.9085172778951360e-04
330 -9.4904980515216480e-03 2.9510213695990877e-03 1.7644533400570119e-03
1857 3.2233930408247977e-03 -4.5896063690229125e-03 1.7017415446691053e-03
1633 5.5031437481035440e-04 -9.8201434453383377e-04 -2.2530101809930926e-03
221 3.5923500020808492e-03 9.0328248549002652e-03 -3.4181611789027818e-03
1116 2.3370499723856780e-02 9.5239710037890429e-03 -4.0945625283048863e-03
1693 -6.4226606326336332e-03 -4.2908005491047018e-03 -3.5386677271618213e-03
1694 1.4435202856115586e-02 7.4647804995900905e-03 1.0542877284057076e-02
2426 -1.8424389297687169e-02 4.2962178947991226e-03 1.2507470300169155e-02
2287 -6.7517936254272168e-03 5.8496590965706622e-03 4.4856993610382602e-03
264 1.5410326026689807e-02 -2.0420762674655375e-02 -3.1173929202599551e-03
646 1.9202257830036042e-03 -6.1727865951129524e-03 1.4776025471248881e-03
2364 6.8582521400939872e-03 -7.4176907914850747e-03 -4.8556618083113916e-03
2288 -2.1871518437280581e-05 1.9190081502671898e-02 -4.7579979760753940e-03
648 -3.1398226922403059e-03 -8.0399673093512532e-03 1.6861712251004426e-02
262 1.1710792321114355e-03 -4.4878160243671588e-03 -4.0568123926920468e-04
2427 1.0342451992973753e-02 5.8526048434633850e-03 -2.0377375873981349e-02
2164 1.8854156533368096e-04 3.7582092835930087e-03 -3.3365613831039761e-03
2425 -3.8078637142802420e-03 8.5237318064045296e-03 4.4172235861328311e-03
2165 -2.2809675913155933e-03 -2.6319051227931267e-03 -1.2077812552595456e-02
1635 1.3619223818572201e-03 2.0086340389178430e-02 -1.5052537911996982e-03
1787 -3.6161930292112265e-03 6.0745619234154691e-03 1.8506661630434178e-02
1976 -3.3927840279358024e-03 4.9447461517950989e-03 -3.3607984811375525e-03
1856 -2.0431862450587580e-02 4.1979970176682715e-03 -1.8249438078507676e-02
1975 -4.7102301191267613e-04 8.8341304438857701e-04 -3.5612302602032234e-03
647 -8.5290970738827309e-03 4.4375497729196257e-03 -2.1933192602834736e-03
1695 1.7896649429742402e-02 9.2668865988971717e-03 1.2440468358403425e-02
1114 1.8073719721211862e-03 3.1769821306899880e-03 7.6110489349757527e-03
2166 8.1109000023069470e-03 1.4968399704611323e-03 3.0342149087165043e-03
1788 -6.5992033154799023e-03 7.7687988091893539e-03 2.9023363216732930e-02
1115 -2.4069487030833111e-02 1.5254962866243534e-02 1.4159672181646699e-02
1786 9.7027934011528522e-04 -4.2404632840473758e-03 -3.0023541776585151e-03
1977 -1.2942483585470649e-02 1.2246993007045079e-02 -2.2619048325312322e-03
1448 -1.6151467024474325e-04 -1.8584947657962797e-03 -4.2192456616909685e-03
2825 -8.5390400992317039e-03 1.0817623426243692e-03 1.9527034049179472e-02
2707 -3.1230660850121265e-03 -2.2492586273198793e-03 2.0964804365082245e-03
2960 -2.7903863392085143e-03 7.0198894010093239e-04 4.0378814874205242e-03
2494 4.9368120644483959e-03 -4.6796609019057328e-03 -7.5482816043804027e-04
2362 -3.8082625320515543e-04 2.1641095254183815e-03 2.6749085032149260e-03
1206 8.4670679457116739e-03 -5.1971621080761947e-03 4.4783439556803856e-03
1204 -2.1377303330731416e-03 7.6287978196546286e-03 2.6263139944868123e-03
1254 -7.5120752035825527e-03 9.1705997769317288e-03 -1.4269007995832155e-02
1252 -5.9843531682930440e-03 -8.5852149616428286e-03 1.8871763346652029e-04
1205 -1.0539091651316465e-02 1.7289832968648316e-02 1.3115479559583339e-03
950 9.6823588533913769e-03 5.3286199529704505e-03 -2.6098559992328305e-03
949 3.2044935868242187e-03 -1.1709787053268957e-03 -5.1380922428513548e-03
1848 -3.3623561746041271e-03 -1.1356075672172106e-02 -2.1074720554367876e-02
1959 -1.0511508302057469e-02 1.2424403982794121e-02 2.1827256533971584e-03
1958 -1.7996078382050740e-02 -1.0667753463384741e-02 1.9941310446950678e-02
1957 -7.7808105092253546e-03 2.8611695490497633e-03 7.4788796492033490e-03
2363 -2.2202803204510263e-02 2.4271690172941410e-02 2.3111689614195404e-02
2496 -6.9234259006454744e-04 1.2925740015150584e-03 -1.6155186578347073e-03
2961 -1.2261762333021741e-02 3.3755736792675608e-03 1.4724047540872308e-02
1846 5.1144670385153586e-03 -1.3356457933567288e-04 -8.7469403743074894e-03
951 -7.3533608457005033e-03 -5.5734489302452636e-03 -7.4355979232197285e-03
1847 4.7939949378747754e-03 1.9563156747755075e-02 -1.7404082656173405e-02
2824 -8.2544654048411219e-04 1.2571350567150781e-03 -6.9868495972389951e-03
2959 -5.0234644539901680e-04 -2.2797346989110469e-03 2.8340199118806570e-03
2495 5.9519228160886473e-03 6.3016551991734119e-03 -7.2515662166678522e-03
2708 -7.2188981644937594e-03 -1.5976289248988911e-02 -4.4803164942062062e-03
1253 9.8562848444345864e-03 -6.5659467515707488e-03 1.8930703695825266e-02
2473 -2.9905810859594279e-03 3.0057284969596809e-03 1.3722954471679658e-03
2866 3.7540310944215644e-03 1.8448248762131054e-03 -1.5246269403502400e-03
1464 6.9815153594105176e-03 9.4752199574548394e-03 -1.6918458383522562e-02
2072 -2.5280989332696385e-02 -2.0191866722111842e-02 -1.3880160050461528e-02
1074 1.2181270171838274e-02 -2.5041535938807738e-04 -1.3878464203426246e-02
2498 6.0146348482233158e-03 1.6835778887150713e-03 -3.8888565233291188e-03
544 8.4427270398920382e-03 4.8185589689008884e-04 4.8891728964434444e-03
1073 1.2232440795536967e-02 -1.1899160579585628e-02 -2.7080085336811253e-02
1072 -3.4799433609190514e-04 -9.5207928305918535e-04 3.2795701112967803e-03
2817 -1.6950415797602297e-02 7.7969524964446686e-03 4.2810982922319484e-03
2816 -1.6810672218394312e-02 5.1940157263125767e-03 9.6906301993839629e-03
334 3.6376992710908957e-03 -2.8847969306121522e-03 2.3460547824961453e-03
1762 2.7871130420783260e-03 -5.0156433368207720e-03 4.5612704749873707e-03
335 3.4561805371607374e-03 -1.2494635130448854e-03 4.3084637746048345e-03
532 3.5668893039084173e-03 4.1093495262733976e-04 5.0938334667956714e-03
2815 -9.6010083281886918e-04 2.0112465467595148e-03 -1.5498846879416427e-03
534 -2.1475929141418558e-04 -2.7469868771276143e-03 -3.3768512994996063e-03
336 4.2801323014363185e-03 -2.5699125858623292e-04 -7.9012490162767759e-03
1185 -4.7900453406520315e-03 1.6394592167661266e-02 6.6489088120204399e-03
533 4.9972320612882400e-03 1.4240995041427667e-03 5.6699414714395831e-03
838 -8.3940885214771818e-03 -1.5461650164185605e-03 -5.2698765063295943e-04
2867 -7.6451160664016511e-03 3.0177224247747102e-03 1.8013060574494060e-03
840 2.3137006717926629e-03 -6.9600576628266091e-03 2.4650894992040914e-03
839 2.4312886769606835e-03 5.1493008494061018e-03 -3.3005230140098697e-03
1183 -7.8572971754071620e-03 -2.3092111260801557e-03 1.2049261541243099e-03
545 2.5712470791117172e-03 6.7027882288956241e-03 4.3717697137975499e-03
1184 -8.4754980134742613e-03 -1.9042468362833721e-02 -1.2338065499355102e-03
1336 6.2377694762499212e-03 -9.1622379664551903e-03 -2.4055704685998422e-03
1338 1.5103204504211766e-02 1.0764542444500204e-02 3.3494247368670593e-03
546 1.5186327874241038e-02 8.3965224904995819e-03 -2.5479596270391513e-03
146 -1.1811874729482608e-03 7.9296912370021098e-03 1.8433438013533220e-02
145 -4.3564984008208806e-06 -2.8514536412737601e-03 -2.8418044579666935e-03
147 -2.6947634727921253e-02 1.7912431227446084e-03 -1.3197697228034192e-02

Bonds

1 1 616 617
2 1 616 618
3 1 847 848
4 1 847 849
5 1 694 695
6 1 694 696
7 1 751 752
8 1 751 753
9 1 1906 1907
10 1 1906 1908
11 1 2296 2297
12 1 2296 2298
13 1 2008 2009
14 1 2008 2010
15 1 1657 1658
16 1 1657 1659
17 1 1579 1580
18 1 1579 1581
19 1 433 434
20 1 433 435
21 1 2407 2408
22 1 2407 2409
23 1 2944 2945
24 1 2944 2946
25 1 2704 2705
26 1 2704 2706
27 1 2788 2789
28 1 2788 2790
29 1 91 92
30 1 91 93
31 1 106 107
32 1 106 108
33 1 1459 1460
34 1 1459 1461
35 1 2953 2954
36 1 2953 2955
37 1 1198 1199
38 1 1198 1200
39 1 1531 1532
40 1 1531 1533
41 1 1828 1829
42 1 1828 1830
43 1 2236 2237
44 1 2236 2238
45 1 2632 2633
46 1 2632 2634
47 1 556 557
48 1 556 558
49 1 2860 2861
50 1 2860 2862
51 1 1297 1298
52 1 1297 1299
53 1 823 824
54 1 823 825
55 1 2956 2957
56 1 2956 2958
57 1 2485 2486
58 1 2485 2487
59 1 1480 1481
60 1 1480 1482
61 1 1387 1388
62 1 1387 1389
63 1 2278 2279
64 1 2278 2280
65 1 40 41
66 1 40 42
67 1 2950 2951
68 1 2950 2952
69 1 1414 1415
70 1 1414 1416
71 1 2911 2912
72 1 2911 2913
73 1 985 986
74 1 985 987
75 1 283 284
76 1 283 285
77 1 394 395
78 1 394 396
79 1 1636 1637
80 1 1636 1638
81 1 7 8
82 1 7 9
83 1 2512 2513
84 1 2512 2514
85 1 2725 2726
86 1 2725 2727
87 1 2356 2357
88 1 2356 2358
89 1 1378 1379
90 1 1378 1380
91 1 88 89
92 1 88 90
93 1 1096 1097
94 1 1096 1098
95 1 2128 2129
96 1 2128 2130
97 1 1483 1484
98 1 1483 1485
99 1 760 761
100 1 760 762
101 1 679 680
102 1 679 681
103 1 916 917
104 1 916 918
105 1 1 2
106 1 1 3
107 1 2701 2702
108 1 2701 2703
109 1 2251 2252
110 1 2251 2253
111 1 1207 1208
112 1 1207 1209
113 1 1873 1874
114 1 1873 1875
115 1 1225 1226
116 1 1225 1227
117 1 2869 2870
118 1 2869 2871
119 1 2593 2594
120 1 2593 2595
121 1 1168 1169
122 1 1168 1170
123 1 2842 2843
124 1 2842 2844
125 1 973 974
126 1 973 975
127 1 1303 1304
128 1 1303 1305
129 1 169 170
130 1 169 171
131 1 2680 2681
132 1 2680 2682
133 1 1720 1721
134 1 1720 1722
135 1 280 281
136 1 280 282
137 1 1408 1409
138 1 1408 1410
139 1 1912 1913
140 1 1912 1914
141 1 1468 1469
142 1 1468 1470
143 1 664 665
144 1 664 666
145 1 2245 2246
146 1 2245 2247
147 1 70 71
148 1 70 72
149 1 1525 1526
150 1 1525 1527
151 1 2458 2459
152 1 2458 2460
153 1 319 320
154 1 319 321
155 1 1744 1745
156 1 1744 1746
157 1 601 602
158 1 601 603
159 1 1282 1283
160 1 1282 1284
161 1 1891 1892
162 1 1891 1893
163 1 451 452
164 1 451 453
165 1 2656 2657
166 1 2656 2658
167 1 2779 2780
168 1 2779 2781
169 1 484 485
170 1 484 486
171 1 2248 2249
172 1 2248 2250
173 1 307 308
174 1 307 309
175 1 370 371
176 1 370 372
177 1 1441 1442
178 1 1441 1443
179 1 1552 1553
180 1 1552 1554
181 1 2293 2294
182 1 2293 2295
183 1 1954 1955
184 1 1954 1956
185 1 2419 2420
186 1 2419 2421
187 1 517 518
188 1 517 519
189 1 1885 1886
190 1 1885 1887
191 1 2773 2774
192 1 2773 2775
193 1 2392 2393
194 1 2392 2394
195 1 2791 2792
196 1 2791 2793
197 1 1279 1280
198 1 1279 1281
199 1 457 458
200 1 457 459
201 1 1750 1751
202 1 1750 1752
203 1 1111 1112
204 1 1111 1113
205 1 298 299
206 1 298 300
207 1 2359 2360
208 1 2359 2361
209 1 1753 1754
210 1 1753 1755
211 1 2227 2228
212 1 2227 2229
213 1 1780 1781
214 1 1780 1782
215 1 1996 1997
216 1 1996 1998
217 1 2290 2291
218 1 2290 2292
219 1 2068 2069
220 1 2068 2070
221 1 1162 1163
222 1 1162 1164
223 1 2764 2765
224 1 2764 2766
225 1 37 38
226 1 37 39
227 1 2329 2330
228 1 2329 2331
229 1 1573 1574
230 1 1573 1575
231 1 2689 2690
232 1 2689 2691
233 1 508 509
234 1 508 510
235 1 877 878
236 1 877 879
237 1 2020 2021
238 1 2020 2022
239 1 1234 1235
240 1 1234 1236
241 1 2437 2438
242 1 2437 2439
243 1 892 893
244 1 892 894
245 1 2398 2399
246 1 2398 2400
247 1 865 866
248 1 865 867
249 1 2257 2258
250 1 2257 2259
251 1 964 965
252 1 964 966
253 1 2461 2462
254 1 2461 2463
255 1 2806 2807
256 1 2806 2808
257 1 922 923
258 1 922 924
259 1 895 896
260 1 895 897
261 1 763 764
262 1 763 765
263 1 1927 1928
264 1 1927 1929
265 1 829 830
266 1 829 831
267 1 2221 2222
268 1 2221 2223
269 1 1951 1952
270 1 1951 1953
271 1 2713 2714
272 1 2713 2715
273 1 2206 2207
274 1 2206 2208
275 1 2902 2903
276 1 2902 2904
277 1 2365 2366
278 1 2365 2367
279 1 2035 2036
280 1 2035 2037
281 1 2545 2546
282 1 2545 2547
283 1 2581 2582
284 1 2581 2583
285 1 2758 2759
286 1 2758 2760
287 1 502 503
288 1 502 504
289 1 1561 1562
290 1 1561 1563
291 1 1024 1025
292 1 1024 1026
293 1 1360 1361
294 1 1360 1362
295 1 187 188
296 1 187 189
297 1 2602 2603
298 1 2602 2604
299 1 1666 1667
300 1 1666 1668
301 1 808 809
302 1 808 810
303 1 1105 1106
304 1 1105 1107
305 1 1642 1643
306 1 1642 1644
307 1 1981 1982
308 1 1981 1983
309 1 2389 2390
310 1 2389 2391
311 1 2110 2111
312 1 2110 2112
313 1 2833 2834
314 1 2833 2835
315 1 2320 2321
316 1 2320 2322
317 1 2053 2054
318 1 2053 2055
319 1 754 755
320 1 754 756
321 1 142 143
322 1 142 144
323 1 1963 1964
324 1 1963 1965
325 1 2500 2501
326 1 2500 2502
327 1 1108 1109
328 1 1108 1110
329 1 1768 1769
330 1 1768 1770
331 1 1840 1841
332 1 1840 1842
333 1 526 527
334 1 526 528
335 1 994 995
336 1 994 996
337 1 1696 1697
338 1 1696 1698
339 1 1507 1508
340 1 1507 1509
341 1 445 446
342 1 445 447
343 1 1216 1217
344 1 1216 1218
345 1 412 413
346 1 412 414
347 1 1255 1256
348 1 1255 1257
349 1 1135 1136
350 1 1135 1137
351 1 2077 2078
352 1 2077 2079
353 1 2275 2276
354 1 2275 2277
355 1 1396 1397
356 1 1396 1398
357 1 1687 1688
358 1 1687 1689
359 1 2893 2894
360 1 2893 2895
361 1 151 152
362 1 151 153
363 1 1240 1241
364 1 1240 1242
365 1 1879 1880
366 1 1879 1881
367 1 124 125
368 1 124 126
369 1 793 794
370 1 793 795
371 1 2140 2141
372 1 2140 2142
373 1 2566 2567
374 1 2566 2568
375 1 946 947
376 1 946 948
377 1 61 62
378 1 61 63
379 1 1807 1808
380 1 1807 1809
381 1 2002 2003
382 1 2002 2004
383 1 2926 2927
384 1 2926 2928
385 1 1093 1094
386 1 1093 1095
387 1 2980 2981
388 1 2980 2982
389 1 859 860
390 1 859 861
391 1 2998 2999
392 1 2998 3000
393 1 2440 2441
394 1 2440 2442
395 1 1501 1502
396 1 1501 1503
397 1 355 356
398 1 355 357
399 1 2368 2369
400 1 2368 2370
401 1 871 872
402 1 871 873
403 1 103 104
404 1 103 105
405 1 1516 1517
406 1 1516 1518
407 1 2284 2285
408 1 2284 2286
409 1 160 161
410 1 160 162
411 1 685 686
412 1 685 687
413 1 2899 2900
414 1 2899 2901
415 1 2611 2612
416 1 2611 2613
417 1 2938 2939
418 1 2938 2940
419 1 430 431
420 1 430 432
421 1 1690 1691
422 1 1690 1692
423 1 235 236
424 1 235 237
425 1 1219 1220
426 1 1219 1221
427 1 343 344
428 1 343 345
429 1 1924 1925
430 1 1924 1926
431 1 94 95
432 1 94 96
433 1 2005 2006
434 1 2005 2007
435 1 2167 2168
436 1 2167 2169
437 1 2380 2381
438 1 2380 2382
439 1 2836 2837
440 1 2836 2838
441 1 1714 1715
442 1 1714 1716
443 1 733 734
444 1 733 735
445 1 943 944
446 1 943 945
447 1 2785 2786
448 1 2785 2787
449 1 1717 1718
450 1 1717 1719
451 1 454 455
452 1 454 456
453 1 1447 1448
454 1 1447 1449
455 1 1564 1565
456 1 1564 1566
457 1 1684 1685
458 1 1684 1686
459 1 1129 1130
460 1 1129 1131
461 1 2503 2504
462 1 2503 2505
463 1 1747 1748
464 1 1747 1749
465 1 2242 2243
466 1 2242 2244
467 1 268 269
468 1 268 270
469 1 1315 1316
470 1 1315 1317
471 1 424 425
472 1 424 426
473 1 2410 2411
474 1 2410 2412
475 1 2476 2477
476 1 2476 2478
477 1 673 674
478 1 673 675
479 1 958 959
480 1 958 960
481 1 2113 2114
482 1 2113 2115
483 1 1117 1118
484 1 1117 1119
485 1 802 803
486 1 802 804
487 1 2692 2693
488 1 2692 2694
489 1 1201 1202
490 1 1201 1203
491 1 529 530
492 1 529 531
493 1 2794 2795
494 1 2794 2796
495 1 1870 1871
496 1 1870 1872
497 1 295 296
498 1 295 297
499 1 1705 1706
500 1 1705 1707
501 1 418 419
502 1 418 420
503 1 2050 2051
504 1 2050 2052
505 1 1060 1061
506 1 1060 1062
507 1 2638 2639
508 1 2638 2640
509 1 2896 2897
510 1 2896 2898
511 1 2089 2090
512 1 2089 2091
513 1 2446 2447
514 1 2446 2448
515 1 2683 2684
516 1 2683 2685
517 1 676 677
518 1 676 678
519 1 2509 2510
520 1 2509 2511
521 1 469 470
522 1 469 471
523 1 1171 1172
524 1 1171 1173
525 1 2800 2801
526 1 2800 2802
527 1 550 551
528 1 550 552
529 1 1429 1430
530 1 1429 1431
531 1 2134 2135
532 1 2134 2136
533 1 1537 1538
534 1 1537 1539
535 1 1120 1121
536 1 1120 1122
537 1 814 815
538 1 814 816
539 1 2152 2153
540 1 2152 2154
541 1 928 929
542 1 928 930
543 1 1405 1406
544 1 1405 1407
545 1 2854 2855
546 1 2854 2856
547 1 2542 2543
548 1 2542 2544
549 1 538 539
550 1 538 540
551 1 955 956
552 1 955 957
553 1 1498 1499
554 1 1498 1500
555 1 1519 1520
556 1 1519 1521
557 1 940 941
558 1 940 942
559 1 1609 1610
560 1 1609 1611
561 1 1672 1673
562 1 1672 1674
563 1 886 887
564 1 886 888
565 1 613 614
566 1 613 615
567 1 2977 2978
568 1 2977 2979
569 1 2443 2444
570 1 2443 2445
571 1 2974 2975
572 1 2974 2976
573 1 2995 2996
574 1 2995 2997
575 1 1000 1001
576 1 1000 1002
577 1 2161 2162
578 1 2161 2163
579 1 352 353
580 1 352 354
581 1 1159 1160
582 1 1159 1161
583 1 625 626
584 1 625 627
585 1 2449 2450
586 1 2449 2451
587 1 2305 2306
588 1 2305 2307
589 1 2857 2858
590 1 2857 2859
591 1 2212 2213
592 1 2212 2214
593 1 166 167
594 1 166 168
595 1 253 254
596 1 253 255
597 1 322 323
598 1 322 324
599 1 1273 1274
600 1 1273 1275
601 1 1426 1427
602 1 1426 1428
603 1 382 383
604 1 382 384
605 1 1402 1403
606 1 1402 1404
607 1 2383 2384
608 1 2383 2385
609 1 1189 1190
610 1 1189 1191
611 1 1819 1820
612 1 1819 1821
613 1 1345 1346
614 1 1345 1347
615 1 670 671
616 1 670 672
617 1 2209 2210
618 1 2209 2211
619 1 937 938
620 1 937 939
621 1 85 86
622 1 85 87
623 1 1936 1937
624 1 1936 1938
625 1 2590 2591
626 1 2590 2592
627 1 409 410
628 1 409 411
629 1 1783 1784
630 1 1783 1785
631 1 2479 2480
632 1 2479 2481
633 1 850 851
634 1 850 852
635 1 2668 2669
636 1 2668 2670
637 1 2761 2762
638 1 2761 2763
639 1 1648 1649
640 1 1648 1650
641 1 421 422
642 1 421 423
643 1 13 14
644 1 13 15
645 1 133 134
646 1 133 135
647 1 115 116
648 1 115 117
649 1 1186 1187
650 1 1186 1188
651 1 2428 2429
652 1 2428 2430
653 1 2884 2885
654 1 2884 2886
655 1 361 362
656 1 361 363
657 1 1897 1898
658 1 1897 1899
659 1 2872 2873
660 1 2872 2874
661 1 2935 2936
662 1 2935 2937
663 1 1465 1466
664 1 1465 1467
665 1 796 797
666 1 796 798
667 1 2506 2507
668 1 2506 2508
669 1 559 560
670 1 559 561
671 1 2143 2144
672 1 2143 2145
673 1 1660 1661
674 1 1660 1662
675 1 997 998
676 1 997 999
677 1 76 77
678 1 76 78
679 1 628 629
680 1 628 630
681 1 586 587
682 1 586 588
683 1 2137 2138
684 1 2137 2139
685 1 1099 1100
686 1 1099 1101
687 1 640 641
688 1 640 642
689 1 316 317
690 1 316 318
691 1 2230 2231
692 1 2230 2232
693 1 2344 2345
694 1 2344 2346
695 1 853 854
696 1 853 855
697 1 73 74
698 1 73 75
699 1 1903 1904
700 1 1903 1905
701 1 1630 1631
702 1 1630 1632
703 1 1390 1391
704 1 1390 1392
705 1 1591 1592
706 1 1591 1593
707 1 1456 1457
708 1 1456 1458
709 1 1036 1037
710 1 1036 1038
711 1 1312 1313
712 1 1312 1314
713 1 2554 2555
714 1 2554 2556
715 1 2191 2192
716 1 2191 2193
717 1 460 461
718 1 460 462
719 1 2737 2738
720 1 2737 2739
721 1 1882 1883
722 1 1882 1884
723 1 2470 2471
724 1 2470 2472
725 1 31 32
726 1 31 33
727 1 52 53
728 1 52 54
729 1 520 521
730 1 520 522
731 1 1864 1865
732 1 1864 1866
733 1 1489 1490
734 1 1489 1491
735 1 241 242
736 1 241 243
737 1 724 725
738 1 724 726
739 1 178 179
740 1 178 180
741 1 856 857
742 1 856 858
743 1 1435 1436
744 1 1435 1437
745 1 2905 2906
746 1 2905 2907
747 1 1540 1541
748 1 1540 1542
749 1 1327 1328
750 1 1327 1329
751 1 766 767
752 1 766 768
753 1 1411 1412
754 1 1411 1413
755 1 184 185
756 1 184 186
757 1 2239 2240
758 1 2239 2241
759 1 2665 2666
760 1 2665 2667
761 1 604 605
762 1 604 606
763 1 2188 2189
764 1 2188 2190
765 1 2677 2678
766 1 2677 2679
767 1 2890 2891
768 1 2890 2892
769 1 358 359
770 1 358 360
771 1 2821 2822
772 1 2821 2823
773 1 1018 1019
774 1 1018 1020
775 1 1381 1382
776 1 1381 1383
777 1 727 728
778 1 727 729
779 1 1711 1712
780 1 1711 1713
781 1 1513 1514
782 1 1513 1515
783 1 1915 1916
784 1 1915 1917
785 1 571 572
786 1 571 573
787 1 2734 2735
788 1 2734 2736
789 1 1384 1385
790 1 1384 1386
791 1 2173 2174
792 1 2173 2175
793 1 2710 2711
794 1 2710 2712
795 1 1774 1775
796 1 1774 1776
797 1 400 401
798 1 400 402
799 1 2395 2396
800 1 2395 2397
801 1 2722 2723
802 1 2722 2724
803 1 2605 2606
804 1 2605 2607
805 1 2626 2627
806 1 2626 2628
807 1 979 980
808 1 979 981
809 1 277 278
810 1 277 279
811 1 1102 1103
812 1 1102 1104
813 1 1012 1013
814 1 1012 1014
815 1 1852 1853
816 1 1852 1854
817 1 1771 1772
818 1 1771 1773
819 1 1894 1895
820 1 1894 1896
821 1 196 197
822 1 196 198
823 1 1132 1133
824 1 1132 1134
825 1 2578 2579
826 1 2578 2580
827 1 739 740
828 1 739 741
829 1 406 407
830 1 406 408
831 1 2299 2300
832 1 2299 2301
833 1 1612 1613
834 1 1612 1614
835 1 631 632
836 1 631 633
837 1 787 788
838 1 787 789
839 1 1399 1400
840 1 1399 1401
841 1 1522 1523
842 1 1522 1524
843 1 1534 1535
844 1 1534 1536
845 1 46 47
846 1 46 48
847 1 1375 1376
848 1 1375 1377
849 1 466 467
850 1 466 468
851 1 1291 1292
852 1 1291 1293
853 1 637 638
854 1 637 639
855 1 175 176
856 1 175 177
857 1 2557 2558
858 1 2557 2559
859 1 2629 2630
860 1 2629 2631
861 1 148 149
862 1 148 150
863 1 1567 1568
864 1 1567 1569
865 1 2941 2942
866 1 2941 2943
867 1 1921 1922
868 1 1921 1923
869 1 1603 1604
870 1 1603 1605
871 1 1126 1127
872 1 1126 1128
873 1 2863 2864
874 1 2863 2865
875 1 1078 1079
876 1 1078 1080
877 1 1306 1307
878 1 1306 1308
879 1 2116 2117
880 1 2116 2118
881 1 2746 2747
882 1 2746 2748
883 1 2647 2648
884 1 2647 2649
885 1 1054 1055
886 1 1054 1056
887 1 1798 1799
888 1 1798 1800
889 1 1555 1556
890 1 1555 1557
891 1 2119 2120
892 1 2119 2121
893 1 2101 2102
894 1 2101 2103
895 1 1027 1028
896 1 1027 1029
897 1 622 623
898 1 622 624
899 1 1504 1505
900 1 1504 1506
901 1 2317 2318
902 1 2317 2319
903 1 1678 1679
904 1 1678 1680
905 1 2617 2618
906 1 2617 2619
907 1 2644 2645
908 1 2644 2646
909 1 2170 2171
910 1 2170 2172
911 1 874 875
912 1 874 876
913 1 2848 2849
914 1 2848 2850
915 1 202 203
916 1 202 204
917 1 2014 2015
918 1 2014 2016
919 1 1357 1358
920 1 1357 1359
921 1 1495 1496
922 1 1495 1497
923 1 2182 2183
924 1 2182 2184
925 1 1261 1262
926 1 1261 1263
927 1 1795 1796
928 1 1795 1797
929 1 835 836
930 1 835 837
931 1 1741 1742
932 1 1741 1743
933 1 889 890
934 1 889 891
935 1 2080 2081
936 1 2080 2082
937 1 499 500
938 1 499 501
939 1 1009 1010
940 1 1009 1011
941 1 1213 1214
942 1 1213 1215
943 1 2908 2909
944 1 2908 2910
945 1 742 743
946 1 742 744
947 1 1420 1421
948 1 1420 1422
949 1 1792 1793
950 1 1792 1794
951 1 25 26
952 1 25 27
953 1 2782 2783
954 1 2782 2784
955 1 1369 1370
956 1 1369 1371
957 1 1594 1595
958 1 1594 1596
959 1 1423 1424
960 1 1423 1425
961 1 2965 2966
962 1 2965 2967
963 1 1900 1901
964 1 1900 1902
965 1 2719 2720
966 1 2719 2721
967 1 610 611
968 1 610 612
969 1 286 287
970 1 286 288
971 1 2197 2198
972 1 2197 2199
973 1 259 260
974 1 259 261
975 1 181 182
976 1 181 183
977 1 2374 2375
978 1 2374 2376
979 1 2059 2060
980 1 2059 2061
981 1 436 437
982 1 436 438
983 1 2074 2075
984 1 2074 2076
985 1 2047 2048
986 1 2047 2049
987 1 745 746
988 1 745 747
989 1 1756 1757
990 1 1756 1758
991 1 292 293
992 1 292 294
993 1 2650 2651
994 1 2650 2652
995 1 2755 2756
996 1 2755 2757
997 1 1738 1739
998 1 1738 1740
999 1 1990 1991
1000 1 1990 1992
1001 1 1867 1868
1002 1 1867 1869
1003 1 688 689
1004 1 688 690
1005 1 2920 2921
1006 1 2920 2922
1007 1 1624 1625
1008 1 1624 1626
1009 1 1246 1247
1010 1 1246 1248
1011 1 1090 1091
1012 1 1090 1092
1013 1 577 578
1014 1 577 579
1015 1 1330 1331
1016 1 1330 1332
1017 1 2302 2303
1018 1 2302 2304
1019 1 562 563
1020 1 562 564
1021 1 1663 1664
1022 1 1663 1665
1023 1 2071 2072
1024 1 2071 2073
1025 1 2350 2351
1026 1 2350 2352
1027 1 718 719
1028 1 718 720
1029 1 2224 2225
1030 1 2224 2226
1031 1 2332 2333
1032 1 2332 2334
1033 1 1822 1823
1034 1 1822 1824
1035 1 2623 2624
1036 1 2623 2625
1037 1 2254 2255
1038 1 2254 2256
1039 1 265 266
1040 1 265 267
1041 1 121 122
1042 1 121 123
1043 1 2122 2123
1044 1 2122 2124
1045 1 2026 2027
1046 1 2026 2028
1047 1 589 590
1048 1 589 591
1049 1 1180 1181
1050 1 1180 1182
1051 1 16 17
1052 1 16 18
1053 1 2662 2663
1054 1 2662 2664
1055 1 1258 1259
1056 1 1258 1260
1057 1 1735 1736
1058 1 1735 1737
1059 1 367 368
1060 1 367 369
1061 1 706 707
1062 1 706 708
1063 1 1081 1082
1064 1 1081 1083
1065 1 274 275
1066 1 274 276
1067 1 736 737
1068 1 736 738
1069 1 1765 1766
1070 1 1765 1767
1071 1 2563 2564
1072 1 2563 2565
1073 1 991 992
1074 1 991 993
1075 1 682 683
1076 1 682 684
1077 1 1444 1445
1078 1 1444 1446
1079 1 391 392
1080 1 391 393
1081 1 1228 1229
1082 1 1228 1230
1083 1 442 443
1084 1 442 444
1085 1 1285 1286
1086 1 1285 1287
1087 1 982 983
1088 1 982 984
1089 1 1702 1703
1090 1 1702 1704
1091 1 1978 1979
1092 1 1978 1980
1093 1 67 68
1094 1 67 69
1095 1 1831 1832
1096 1 1831 1833
1097 1 667 668
1098 1 667 669
1099 1 1708 1709
1100 1 1708 1710
1101 1 2524 2525
1102 1 2524 2526
1103 1 2011 2012
1104 1 2011 2013
1105 1 1984 1985
1106 1 1984 1986
1107 1 247 248
1108 1 247 249
1109 1 2914 2915
1110 1 2914 2916
1111 1 379 380
1112 1 379 381
1113 1 925 926
1114 1 925 927
1115 1 232 233
1116 1 232 234
1117 1 1918 1919
1118 1 1918 1920
1119 1 2539 2540
1120 1 2539 2541
1121 1 2371 2372
1122 1 2371 2373
1123 1 130 131
1124 1 130 132
1125 1 79 80
1126 1 79 81
1127 1 1549 1550
1128 1 1549 1551
1129 1 271 272
1130 1 271 273
1131 1 2467 2468
1132 1 2467 2469
1133 1 1432 1433
1134 1 1432 1434
1135 1 2641 2642
1136 1 2641 2643
1137 1 1987 1988
1138 1 1987 1989
1139 1 880 881
1140 1 880 882
1141 1 439 440
1142 1 439 441
1143 1 1510 1511
1144 1 1510 1512
1145 1 1021 1022
1146 1 1021 1023
1147 1 1003 1004
1148 1 1003 1005
1149 1 2749 2750
1150 1 2749 2751
1151 1 2695 2696
1152 1 2695 2697
1153 1 2827 2828
1154 1 2827 2829
1155 1 2482 2483
1156 1 2482 2484
1157 1 952 953
1158 1 952 954
1159 1 1732 1733
1160 1 1732 1734
1161 1 1075 1076
1162 1 1075 1077
1163 1 2521 2522
1164 1 2521 2523
1165 1 1153 1154
1166 1 1153 1155
1167 1 250 251
1168 1 250 252
1169 1 910 911
1170 1 910 912
1171 1 2131 2132
1172 1 2131 2133
1173 1 1816 1817
1174 1 1816 1818
1175 1 1876 1877
1176 1 1876 1878
1177 1 2086 2087
1178 1 2086 2088
1179 1 844 845
1180 1 844 846
1181 1 487 488
1182 1 487 489
1183 1 1006 1007
1184 1 1006 1008
1185 1 898 899
1186 1 898 900
1187 1 1492 1493
1188 1 1492 1494
1189 1 535 536
1190 1 535 537
1191 1 988 989
1192 1 988 990
1193 1 2095 2096
1194 1 2095 2097
1195 1 1450 1451
1196 1 1450 1452
1197 1 478 479
1198 1 478 480
1199 1 709 710
1200 1 709 711
1201 1 2416 2417
1202 1 2416 2418
1203 1 1372 1373
1204 1 1372 1374
1205 1 2272 2273
1206 1 2272 2274
1207 1 1267 1268
1208 1 1267 1269
1209 1 1789 1790
1210 1 1789 1791
1211 1 301 302
1212 1 301 303
1213 1 1063 1064
1214 1 1063 1065
1215 1 1066 1067
1216 1 1066 1068
1217 1 655 656
1218 1 655 657
1219 1 1639 1640
1220 1 1639 1641
1221 1 472 473
1222 1 472 474
1223 1 2923 2924
1224 1 2923 2925
1225 1 1849 1850
1226 1 1849 1851
1227 1 817 818
1228 1 817 819
1229 1 967 968
1230 1 967 969
1231 1 2809 2810
1232 1 2809 2811
1233 1 2740 2741
1234 1 2740 2742
1235 1 337 338
1236 1 337 339
1237 1 2269 2270
1238 1 2269 2271
1239 1 2083 2084
1240 1 2083 2085
1241 1 127 128
1242 1 127 129
1243 1 2845 2846
1244 1 2845 2847
1245 1 919 920
1246 1 919 921
1247 1 1084 1085
1248 1 1084 1086
1249 1 256 257
1250 1 256 258
1251 1 2812 2813
1252 1 2812 2814
1253 1 1471 1472
1254 1 1471 1473
1255 1 1999 2000
1256 1 1999 2001
1257 1 1969 1970
1258 1 1969 1971
1259 1 1351 1352
1260 1 1351 1353
1261 1 1585 1586
1262 1 1585 1587
1263 1 100 101
1264 1 100 102
1265 1 10 11
1266 1 10 12
1267 1 1681 1682
1268 1 1681 1683
1269 1 19 20
1270 1 19 21
1271 1 1933 1934
1272 1 1933 1935
1273 1 427 428
1274 1 427 429
1275 1 1015 1016
1276 1 1015 1017
1277 1 2146 2147
1278 1 2146 2148
1279 1 58 59
1280 1 58 60
1281 1 1651 1652
1282 1 1651 1653
1283 1 1453 1454
1284 1 1453 1455
1285 1 2971 2972
1286 1 2971 2973
1287 1 346 347
1288 1 346 348
1289 1 2527 2528
1290 1 2527 2529
1291 1 2491 2492
1292 1 2491 2493
1293 1 1087 1088
1294 1 1087 1089
1295 1 118 119
1296 1 118 120
1297 1 2260 2261
1298 1 2260 2262
1299 1 310 311
1300 1 310 312
1301 1 1393 1394
1302 1 1393 1395
1303 1 661 662
1304 1 661 663
1305 1 715 716
1306 1 715 717
1307 1 2728 2729
1308 1 2728 2730
1309 1 331 332
1310 1 331 333
1311 1 2233 2234
1312 1 2233 2235
1313 1 505 506
1314 1 505 507
1315 1 565 566
1316 1 565 567
1317 1 2698 2699
1318 1 2698 2700
1319 1 1477 1478
1320 1 1477 1479
1321 1 2098 2099
1322 1 2098 2100
1323 1 826 827
1324 1 826 828
1325 1 2875 2876
1326 1 2875 2877
1327 1 1930 1931
1328 1 1930 1932
1329 1 2062 2063
1330 1 2062 2064
1331 1 649 650
1332 1 649 651
1333 1 2092 2093
1334 1 2092 2094
1335 1 2311 2312
1336 1 2311 2313
1337 1 1270 1271
1338 1 1270 1272
1339 1 1606 1607
1340 1 1606 1608
1341 1 2413 2414
1342 1 2413 2415
1343 1 1030 1031
1344 1 1030 1032
1345 1 1264 1265
1346 1 1264 1266
1347 1 1300 1301
1348 1 1300 1302
1349 1 961 962
1350 1 961 963
1351 1 1165 1166
1352 1 1165 1167
1353 1 1588 1589
1354 1 1588 1590
1355 1 799 800
1356 1 799 801
1357 1 1210 1211
1358 1 1210 1212
1359 1 82 83
1360 1 82 84
1361 1 1810 1811
1362 1 1810 1812
1363 1 1576 1577
1364 1 1576 1578
1365 1 2560 2561
1366 1 2560 2562
1367 1 2986 2987
1368 1 2986 2988
1369 1 2551 2552
1370 1 2551 2553
1371 1 2989 2990
1372 1 2989 2991
1373 1 1570 1571
1374 1 1570 1572
1375 1 2569 2570
1376 1 2569 2571
1377 1 1528 1529
1378 1 1528 1530
1379 1 2620 2621
1380 1 2620 2622
1381 1 2992 2993
1382 1 2992 2994
1383 1 223 224
1384 1 223 225
1385 1 205 206
1386 1 205 207
1387 1 2962 2963
1388 1 2962 2964
1389 1 1141 1142
1390 1 1141 1143
1391 1 1627 1628
1392 1 1627 1629
1393 1 2851 2852
1394 1 2851 2853
1395 1 43 44
1396 1 43 45
1397 1 490 491
1398 1 490 492
1399 1 592 593
1400 1 592 594
1401 1 2917 2918
1402 1 2917 2919
1403 1 1834 1835
1404 1 1834 1836
1405 1 385 386
1406 1 385 387
1407 1 1192 1193
1408 1 1192 1194
1409 1 1615 1616
1410 1 1615 1617
1411 1 28 29
1412 1 28 30
1413 1 1147 1148
1414 1 1147 1149
1415 1 1888 1889
1416 1 1888 1890
1417 1 1654 1655
1418 1 1654 1656
1419 1 1048 1049
1420 1 1048 1050
1421 1 2056 2057
1422 1 2056 2058
1423 1 1156 1157
1424 1 1156 1158
1425 1 2335 2336
1426 1 2335 2337
1427 1 2341 2342
1428 1 2341 2343
1429 1 2023 2024
1430 1 2023 2025
1431 1 748 749
1432 1 748 750
1433 1 2770 2771
1434 1 2770 2772
1435 1 1966 1967
1436 1 1966 1968
1437 1 376 377
1438 1 376 378
1439 1 1237 1238
1440 1 1237 1239
1441 1 2968 2969
1442 1 2968 2970
1443 1 784 785
1444 1 784 786
1445 1 607 608
1446 1 607 609
1447 1 2218 2219
1448 1 2218 2220
1449 1 1600 1601
1450 1 1600 1602
1451 1 1249 1250
1452 1 1249 1251
1453 1 1417 1418
1454 1 1417 1419
1455 1 214 215
1456 1 214 216
1457 1 2674 2675
1458 1 2674 2676
1459 1 2887 2888
1460 1 2887 2889
1461 1 190 191
1462 1 190 192
1463 1 820 821
1464 1 820 822
1465 1 511 512
1466 1 511 513
1467 1 2266 2267
1468 1 2266 2268
1469 1 415 416
1470 1 415 417
1471 1 199 200
1472 1 199 201
1473 1 2125 2126
1474 1 2125 2127
1475 1 2029 2030
1476 1 2029 2031
1477 1 769 770
1478 1 769 771
1479 1 2839 2840
1480 1 2839 2841
1481 1 580 581
1482 1 580 582
1483 1 64 65
1484 1 64 66
1485 1 34 35
1486 1 34 36
1487 1 1777 1778
1488 1 1777 1779
1489 1 1699 1700
1490 1 1699 1701
1491 1 700 701
1492 1 700 702
1493 1 112 113
1494 1 112 114
1495 1 2452 2453
1496 1 2452 2454
1497 1 1177 1178
1498 1 1177 1179
1499 1 703 704
1500 1 703 705
1501 1 1558 1559
1502 1 1558 1560
1503 1 1438 1439
1504 1 1438 1440
1505 1 463 464
1506 1 463 465
1507 1 1339 1340
1508 1 1339 1341
1509 1 1366 1367
1510 1 1366 1368
1511 1 2614 2615
1512 1 2614 2616
1513 1 2044 2045
1514 1 2044 2046
1515 1 448 449
1516 1 448 450
1517 1 1960 1961
1518 1 1960 1962
1519 1 1462 1463
1520 1 1462 1464
1521 1 22 23
1522 1 22 24
1523 1 193 194
1524 1 193 195
1525 1 1729 1730
1526 1 1729 1731
1527 1 2377 2378
1528 1 2377 2379
1529 1 2215 2216
1530 1 2215 2217
1531 1 1051 1052
1532 1 1051 1053
1533 1 49 50
1534 1 49 51
1535 1 496 497
1536 1 496 498
1537 1 238 239
1538 1 238 240
1539 1 712 713
1540 1 712 714
1541 1 1231 1232
1542 1 1231 1233
1543 1 1354 1355
1544 1 1354 1356
1545 1 1813 1814
1546 1 1813 1815
1547 1 2497 2498
1548 1 2497 2499
1549 1 229 230
1550 1 229 231
1551 1 553 554
1552 1 553 555
1553 1 1150 1151
1554 1 1150 1152
1555 1 1861 1862
1556 1 1861 1863
1557 1 541 542
1558 1 541 543
1559 1 325 326
1560 1 325 327
1561 1 775 776
1562 1 775 777
1563 1 2455 2456
1564 1 2455 2457
1565 1 1645 1646
1566 1 1645 1647
1567 1 1675 1676
1568 1 1675 1677
1569 1 2584 2585
1570 1 2584 2586
1571 1 1726 1727
1572 1 1726 1728
1573 1 1582 1583
1574 1 1582 1584
1575 1 109 110
1576 1 109 111
1577 1 2308 2309
1578 1 2308 2310
1579 1 1321 1322
1580 1 1321 1323
1581 1 1138 1139
1582 1 1138 1140
1583 1 2818 2819
1584 1 2818 2820
1585 1 2065 2066
1586 1 2065 2067
1587 1 2932 2933
1588 1 2932 2934
1589 1 1669 1670
1590 1 1669 1671
1591 1 2422 2423
1592 1 2422 2424
1593 1 2878 2879
1594 1 2878 2880
1595 1 2203 2204
1596 1 2203 2205
1597 1 475 476
1598 1 475 477
1599 1 373 374
1600 1 373 375
1601 1 1363 1364
1602 1 1363 1365
1603 1 1837 1838
1604 1 1837 1839
1605 1 349 350
1606 1 349 351
1607 1 2731 2732
1608 1 2731 2733
1609 1 2176 2177
1610 1 2176 2178
1611 1 1294 1295
1612 1 1294 1296
1613 1 976 977
1614 1 976 978
1615 1 2194 2195
1616 1 2194 2196
1617 1 481 482
1618 1 481 483
1619 1 730 731
1620 1 730 732
1621 1 652 653
1622 1 652 654
1623 1 172 173
1624 1 172 174
1625 1 598 599
1626 1 598 600
1627 1 217 218
1628 1 217 219
1629 1 2572 2573
1630 1 2572 2574
1631 1 2401 2402
1632 1 2401 2403
1633 1 697 698
1634 1 697 699
1635 1 2386 2387
1636 1 2386 2388
1637 1 934 935
1638 1 934 936
1639 1 1723 1724
1640 1 1723 1725
1641 1 1333 1334
1642 1 1333 1335
1643 1 2830 2831
1644 1 2830 2832
1645 1 313 314
1646 1 313 315
1647 1 2017 2018
1648 1 2017 2019
1649 1 2686 2687
1650 1 2686 2688
1651 1 2659 2660
1652 1 2659 2661
1653 1 2149 2150
1654 1 2149 2151
1655 1 2041 2042
1656 1 2041 2043
1657 1 2518 2519
1658 1 2518 2520
1659 1 211 212
1660 1 211 213
1661 1 721 722
1662 1 721 723
1663 1 2776 2777
1664 1 2776 2778
1665 1 862 863
1666 1 862 864
1667 1 208 209
1668 1 208 210
1669 1 2281 2282
1670 1 2281 2283
1671 1 2533 2534
1672 1 2533 2535
1673 1 805 806
1674 1 805 807
1675 1 2464 2465
1676 1 2464 2466
1677 1 1801 1802
1678 1 1801 1803
1679 1 1948 1949
1680 1 1948 1950
1681 1 154 155
1682 1 154 156
1683 1 2515 2516
1684 1 2515 2517
1685 1 2032 2033
1686 1 2032 2034
1687 1 2185 2186
1688 1 2185 2187
1689 1 2347 2348
1690 1 2347 2349
1691 1 1309 1310
1692 1 1309 1311
1693 1 2983 2984
1694 1 2983 2985
1695 1 1843 1844
1696 1 1843 1845
1697 1 1243 1244
1698 1 1243 1245
1699 1 1939 1940
1700 1 1939 1941
1701 1 883 884
1702 1 883 885
1703 1 595 596
1704 1 595 597
1705 1 2608 2609
1706 1 2608 2610
1707 1 364 365
1708 1 364 366
1709 1 388 389
1710 1 388 390
1711 1 1057 1058
1712 1 1057 1059
1713 1 781 782
1714 1 781 783
1715 1 2596 2597
1716 1 2596 2598
1717 1 1039 1040
1718 1 1039 1041
1719 1 1045 1046
1720 1 1045 1047
1721 1 1858 1859
1722 1 1858 1860
1723 1 811 812
1724 1 811 813
1725 1 1144 1145
1726 1 1144 1146
1727 1 2803 2804
1728 1 2803 2805
1729 1 2200 2201
1730 1 2200 2202
1731 1 1486 1487
1732 1 1486 1488
1733 1 1123 1124
1734 1 1123 1125
1735 1 1543 1544
1736 1 1543 1545
1737 1 1621 1622
1738 1 1621 1623
1739 1 493 494
1740 1 493 495
1741 1 2716 2717
1742 1 2716 2718
1743 1 2947 2948
1744 1 2947 2949
1745 1 2434 2435
1746 1 2434 2436
1747 1 1759 1760
1748 1 1759 1761
1749 1 1276 1277
1750 1 1276 1278
1751 1 1042 1043
1752 1 1042 1044
1753 1 1474 1475
1754 1 1474 1476
1755 1 2536 2537
1756 1 2536 2538
1757 1 2338 2339
1758 1 2338 2340
1759 1 1195 1196
1760 1 1195 1197
1761 1 547 548
1762 1 547 549
1763 1 1033 1034
1764 1 1033 1035
1765 1 1222 1223
1766 1 1222 1224
1767 1 2743 2744
1768 1 2743 2745
1769 1 1597 1598
1770 1 1597 1599
1771 1 2314 2315
1772 1 2314 2316
1773 1 2158 2159
1774 1 2158 2160
1775 1 931 932
1776 1 931 933
1777 1 2431 2432
1778 1 2431 2433
1779 1 1174 1175
1780 1 1174 1176
1781 1 2635 2636
1782 1 2635 2637
1783 1 2404 2405
1784 1 2404 2406
1785 1 2653 2654
1786 1 2653 2655
1787 1 790 791
1788 1 790 792
1789 1 619 620
1790 1 619 621
1791 1 904 905
1792 1 904 906
1793 1 55 56
1794 1 55 57
1795 1 304 305
1796 1 304 306
1797 1 2587 2588
1798 1 2587 2589
1799 1 841 842
1800 1 841 843
1801 1 2599 2600
1802 1 2599 2601
1803 1 1972 1973
1804 1 1972 1974
1805 1 1825 1826
1806 1 1825 1827
1807 1 1318 1319
1808 1 1318 1320
1809 1 97 98
1810 1 97 99
1811 1 868 869
1812 1 868 870
1813 1 901 902
1814 1 901 903
1815 1 244 245
1816 1 244 246
1817 1 907 908
1818 1 907 909
1819 1 1342 1343
1820 1 1342 1344
1821 1 1804 1805
1822 1 1804 1806
1823 1 772 773
1824 1 772 774
1825 1 2104 2105
1826 1 2104 2106
1827 1 1909 1910
1828 1 1909 1911
1829 1 157 158
1830 1 157 159
1831 1 1945 1946
1832 1 1945 1947
1833 1 2671 2672
1834 1 2671 2673
1835 1 2575 2576
1836 1 2575 2577
1837 1 4 5
1838 1 4 6
1839 1 778 779
1840 1 778 780
1841 1 2929 2930
1842 1 2929 2931
1843 1 2179 2180
1844 1 2179 2181
1845 1 289 290
1846 1 289 291
1847 1 139 140
1848 1 139 141
1849 1 397 398
1850 1 397 399
1851 1 2752 2753
1852 1 2752 2754
1853 1 658 659
1854 1 658 660
1855 1 2881 2882
1856 1 2881 2883
1857 1 568 569
1858 1 568 570
1859 1 634 635
1860 1 634 636
1861 1 832 833
1862 1 832 834
1863 1 2263 2264
1864 1 2263 2265
1865 1 583 584
1866 1 583 585
1867 1 1942 1943
1868 1 1942 1944
1869 1 163 164
1870 1 163 165
1871 1 1546 1547
1872 1 1546 1548
1873 1 1993 1994
1874 1 1993 1995
1875 1 1324 1325
1876 1 1324 1326
1877 1 1069 1070
1878 1 1069 1071
1879 1 2326 2327
1880 1 2326 2328
1881 1 340 341
1882 1 340 342
1883 1 2530 2531
1884 1 2530 2532
1885 1 1288 1289
1886 1 1288 1290
1887 1 2353 2354
1888 1 2353 2355
1889 1 2038 2039
1890 1 2038 2040
1891 1 226 227
1892 1 226 228
1893 1 970 971
1894 1 970 972
1895 1 2797 2798
1896 1 2797 2799
1897 1 220 221
1898 1 220 222
1899 1 136 137
1900 1 136 138
1901 1 403 404
1902 1 403 405
1903 1 514 515
1904 1 514 516
1905 1 1348 1349
1906 1 1348 1350
1907 1 2488 2489
1908 1 2488 2490
1909 1 523 524
1910 1 523 525
1911 1 757 758
1912 1 757 759
1913 1 2155 2156
1914 1 2155 2157
1915 1 2767 2768
1916 1 2767 2769
1917 1 913 914
1918 1 913 915
1919 1 574 575
1920 1 574 576
1921 1 1618 1619
1922 1 1618 1620
1923 1 2323 2324
1924 1 2323 2325
1925 1 643 644
1926 1 643 645
1927 1 2107 2108
1928 1 2107 2109
1929 1 2548 2549
1930 1 2548 2550
1931 1 691 692
1932 1 691 693
1933 1 1855 1856
1934 1 1855 1857
1935 1 328 329
1936 1 328 330
1937 1 1633 1634
1938 1 1633 1635
1939 1 1693 1694
1940 1 1693 1695
1941 1 2287 2288
1942 1 2287 2289
1943 1 646 647
1944 1 646 648
1945 1 262 263
1946 1 262 264
1947 1 2164 2165
1948 1 2164 2166
1949 1 2425 2426
1950 1 2425 2427
1951 1 1975 1976
1952 1 1975 1977
1953 1 1114 1115
1954 1 1114 1116
1955 1 1786 1787
1956 1 1786 1788
1957 1 2707 2708
1958 1 2707 2709
1959 1 2494 2495
1960 1 2494 2496
1961 1 2362 2363
1962 1 2362 2364
1963 1 1204 1205
1964 1 1204 1206
1965 1 1252 1253
1966 1 1252 1254
1967 1 949 950
1968 1 949 951
1969 1 1957 1958
1970 1 1957 1959
1971 1 1846 1847
1972 1 1846 1848
1973 1 2824 2825
1974 1 2824 2826
1975 1 2959 2960
1976 1 2959 2961
1977 1 2473 2474
1978 1 2473 2475
1979 1 2866 2867
1980 1 2866 2868
1981 1 544 545
1982 1 544 546
1983 1 1072 1073
1984 1 1072 1074
1985 1 334 335
1986 1 334 336
1987 1 1762 1763
1988 1 1762 1764
1989 1 532 533
1990 1 532 534
1991 1 2815 2816
1992 1 2815 2817
1993 1 838 839
1994 1 838 840
1995 1 1183 1184
1996 1 1183 1185
1997 1 1336 1337
1998 1 1336 1338
1999 1 145 146
2000 1 145 147

Angles

1 1 618 616 617
2 1 849 847 848
3 1 696 694 695
4 1 753 751 752
5 1 1908 1906 1907
6 1 2298 2296 2297
7 1 2010 2008 2009
8 1 1659 1657 1658
9 1 1581 1579 1580
10 1 435 433 434
11 1 2409 2407 2408
12 1 2946 2944 2945
13 1 2706 2704 2705
14 1 2790 2788 2789
15 1 93 91 92
16 1 108 106 107
17 1 1461 1459 1460
18 1 2955 2953 2954
19 1 1200 1198 1199
20 1 1533 1531 1532
21 1 1830 1828 1829
22 1 2238 2236 2237
23 1 2634 2632 2633
24 1 558 556 557
25 1 2862 2860 2861
26 1 1299 1297 1298
27 1 825 823 824
28 1 2958 2956 2957
29 1 2487 2485 2486
30 1 1482 1480 1481
31 1 1389 1387 1388
32 1 2280 2278 2279
33 1 42 40 41
34 1 2952 2950 2951
35 1 1416 1414 1415
36 1 2913 2911 2912
37 1 987 985 986
38 1 285 283 284
39 1 396 394 395
40 1 1638 1636 1637
41 1 9 7 8
42 1 2514 2512 2513
43 1 2727 2725 2726
44 1 2358 2356 2357
45 1 1380 1378 1379
46 1 90 88 89
47 1 1098 1096 1097
48 1 2130 2128 2129
49 1 1485 1483 1484
50 1 762 760 761
51 1 681 679 680
52 1 918 916 917
53 1 3 1 2
54 1 2703 2701 2702
55 1 2253 2251 2252
56 1 1209 1207 1208
57 1 1875 1873 1874
58 1 1227 1225 1226
59 1 2871 2869 2870
60 1 2595 2593 2594
61 1 1170 1168 1169
62 1 2844 2842 2843
63 1 975 973 974
64 1 1305 1303 1304
65 1 171 169 170
66 1 2682 2680 2681
67 1 1722 1720 1721
68 1 282 280 281
69 1 1410 1408 1409
70 1 1914 1912 1913
71 1 1470 1468 1469
72 1 666 664 665
73 1 2247 2245 2246
74 1 72 70 71
75 1 1527 1525 1526
76 1 2460 2458 2459
77 1 321 319 320
78 1 1746 1744 1745
79 1 603 601 602
80 1 1284 1282 1283
81 1 1893 1891 1892
82 1 453 451 452
83 1 2658 2656 2657
84 1 2781 2779 2780
85 1 486 484 485
86 1 2250 2248 2249
87 1 309 307 308
88 1 372 370 371
89 1 1443 1441 1442
90 1 1554 1552 1553
91 1 2295 2293 2294
92 1 1956 1954 1955
93 1 2421 2419 2420
94 1 519 517 518
95 1 1887 1885 1886
96 1 2775 2773 2774
97 1 2394 2392 2393
98 1 2793 2791 2792
99 1 1281 1279 1280
100 1 459 457 458
101 1 1752 1750 1751
102 1 1113 1111 1112
103 1 300 298 299
104 1 2361 2359 2360
105 1 1755 1753 1754
106 1 2229 2227 2228
107 1 1782 1780 1781
108 1 1998 1996 1997
109 1 2292 2290 2291
110 1 2070 2068 2069
111 1 1164 1162 1163
112 1 2766 2764 2765
113 1 39 37 38
114 1 2331 2329 2330
115 1 1575 1573 1574
116 1 2691 2689 2690
117 1 510 508 509
118 1 879 877 878
119 1 2022 2020 2021
120 1 1236 1234 1235
121 1 2439 2437 2438
122 1 894 892 893
123 1 2400 2398 2399
124 1 867 865 866
125 1 2259 2257 2258
126 1 966 964 965
127 1 2463 2461 2462
128 1 2808 2806 2807
129 1 924 922 923
130 1 897 895 896
131 1 765 763 764
132 1 1929 1927 1928
133 1 831 829 830
134 1 2223 2221 2222
135 1 1953 1951 1952
136 1 2715 2713 2714
137 1 2208 2206 2207
138 1 2904 2902 2903
139 1 2367 2365 2366
140 1 2037 2035 2036
141 1 2547 2545 2546
142 1 2583 2581 2582
143 1 2760 2758 2759
144 1 504 502 503
145 1 1563 1561 1562
146 1 1026 1024 1025
147 1 1362 1360 1361
148 1 189 187 188
149 1 2604 2602 2603
150 1 1668 1666 1667
151 1 810 808 809
152 1 1107 1105 1106
153 1 1644 1642 1643
154 1 1983 1981 1982
155 1 2391 2389 2390
156 1 2112 2110 2111
157 1 2835 2833 2834
158 1 2322 2320 2321
159 1 2055 2053 2054
160 1 756 754 755
161 1 144 142 143
162 1 1965 1963 1964
163 1 2502 2500 2501
164 1 1110 1108 1109
165 1 1770 1768 1769
166 1 1842 1840 1841
167 1 528 526 527
168 1 996 994 995
169 1 1698 1696 1697
170 1 1509 1507 1508
171 1 447 445 446
172 1 1218 1216 1217
173 1 414 412 413
174 1 1257 1255 1256
175 1 1137 1135 1136
176 1 2079 2077 2078
177 1 2277 2275 2276
178 1 1398 1396 1397
179 1 1689 1687 1688
180 1 2895 2893 2894
181 1 153 151 152
182 1 1242 1240 1241
183 1 1881 1879 1880
184 1 126 124 125
185 1 795 793 794
186 1 2142 2140 2141
187 1 2568 2566 2567
188 1 948 946 947
189 1 63 61 62
190 1 1809 1807 1808
191 1 2004 2002 2003
192 1 2928 2926 2927
193 1 1095 1093 1094
194 1 2982 2980 2981
195 1 861 859 860
196 1 3000 2998 2999
197 1 2442 2440 2441
198 1 1503 1501 1502
199 1 357 355 356
200 1 2370 2368 2369
201 1 873 871 872
202 1 105 103 104
203 1 1518 1516 1517
204 1 2286 2284 2285
205 1 162 160 161
206 1 687 685 686
207 1 2901 2899 2900
208 1 2613 2611 2612
209 1 2940 2938 2939
210 1 432 430 431
211 1 1692 1690 1691
212 1 237 235 236
213 1 1221 1219 1220
214 1 345 343 344
215 1 1926 1924 1925
216 1 96 94 95
217 1 2007 2005 2006
218 1 2169 2167 2168
219 1 2382 2380 2381
220 1 2838 2836 2837
221 1 1716 1714 1715
222 1 735 733 734
223 1 945 943 944
224 1 2787 2785 2786
225 1 1719 1717 1718
226 1 456 454 455
227 1 1449 1447 1448
228 1 1566 1564 1565
229 1 1686 1684 1685
230 1 1131 1129 1130
231 1 2505 2503 2504
232 1 1749 1747 1748
233 1 2244 2242 2243
234 1 270 268 269
235 1 1317 1315 1316
236 1 426 424 425
237 1 2412 2410 2411
238 1 2478 2476 2477
239 1 675 673 674
240 1 960 958 959
241 1 2115 2113 2114
242 1 1119 1117 1118
243 1 804 802 803
244 1 2694 2692 2693
245 1 1203 1201 1202
246 1 531 529 530
247 1 2796 2794 2795
248 1 1872 1870 1871
249 1 297 295 296
250 1 1707 1705 1706
251 1 420 418 419
252 1 2052 2050 2051
253 1 1062 1060 1061
254 1 2640 2638 2639
255 1 2898 2896 2897
256 1 2091 2089 2090
257 1 2448 2446 2447
258 1 2685 2683 2684
259 1 678 676 677
260 1 2511 2509 2510
261 1 471 469 470
262 1 1173 1171 1172
263 1 2802 2800 2801
264 1 552 550 551
265 1 1431 1429 1430
266 1 2136 2134 2135
267 1 1539 1537 1538
268 1 1122 1120 1121
269 1 816 814 815
270 1 2154 2152 2153
271 1 930 928 929
272 1 1407 1405 1406
273 1 2856 2854 2855
274 1 2544 2542 2543
275 1 540 538 539
276 1 957 955 956
277 1 1500 1498 1499
278 1 1521 1519 1520
279 1 942 940 941
280 1 1611 1609 1610
281 1 1674 1672 1673
282 1 888 886 887
283 1 615 613 614
284 1 2979 2977 2978
285 1 2445 2443 2444
286 1 2976 2974 2975
287 1 2997 2995 2996
288 1 1002 1000 1001
289 1 2163 2161 2162
290 1 354 352 353
291 1 1161 1159 1160
292 1 627 625 626
293 1 2451 2449 2450
294 1 2307 2305 2306
295 1 2859 2857 2858
296 1 2214 2212 2213
297 1 168 166 167
298 1 255 253 254
299 1 324 322 323
300 1 1275 1273 1274
301 1 1428 1426 1427
302 1 384 382 383
303 1 1404 1402 1403
304 1 2385 2383 2384
305 1 1191 1189 1190
306 1 1821 1819 1820
307 1 1347 1345 1346
308 1 672 670 671
309 1 2211 2209 2210
310 1 939 937 938
311 1 87 85 86
312 1 1938 1936 1937
313 1 2592 2590 2591
314 1 411 409 410
315 1 1785 1783 1784
316 1 2481 2479 2480
317 1 852 850 851
318 1 2670 2668 2669
319 1 2763 2761 2762
320 1 1650 1648 1649
321 1 423 421 422
322 1 15 13 14
323 1 135 133 134
324 1 117 115 116
325 1 1188 1186 1187
326 1 2430 2428 2429
327 1 2886 2884 2885
328 1 363 361 362
329 1 1899 1897 1898
330 1 2874 2872 2873
331 1 2937 2935 2936
332 1 1467 1465 1466
333 1 798 796 797
334 1 2508 2506 2507
335 1 561 559 560
336 1 2145 2143 2144
337 1 1662 1660 1661
338 1 999 997 998
339 1 78 76 77
340 1 630 628 629
341 1 588 586 587
342 1 2139 2137 2138
343 1 1101 1099 1100
344 1 642 640 641
345 1 318 316 317
346 1 2232 2230 2231
347 1 2346 2344 2345
348 1 855 853 854
349 1 75 73 74
350 1 1905 1903 1904
351 1 1632 1630 1631
352 1 1392 1390 1391
353 1 1593 1591 1592
354 1 1458 1456 1457
355 1 1038 1036 1037
356 1 1314 1312 1313
357 1 2556 2554 2555
358 1 2193 2191 2192
359 1 462 460 461
360 1 2739 2737 2738
361 1 1884 1882 1883
362 1 2472 2470 2471
363 1 33 31 32
364 1 54 52 53
365 1 522 520 521
366 1 1866 1864 1865
367 1 1491 1489 1490
368 1 243 241 242
369 1 726 724 725
370 1 180 178 179
371 1 858 856 857
372 1 1437 1435 1436
373 1 2907 2905 2906
374 1 1542 1540 1541
375 1 1329 1327 1328
376 1 768 766 767
377 1 1413 1411 1412
378 1 186 184 185
379 1 2241 2239 2240
380 1 2667 2665 2666
381 1 606 604 605
382 1 2190 2188 2189
383 1 2679 2677 2678
384 1 2892 2890 2891
385 1 360 358 359
386 1 2823 2821 2822
387 1 1020 1018 1019
388 1 1383 1381 1382
389 1 729 727 728
390 1 1713 1711 1712
391 1 1515 1513 1514
392 1 1917 1915 1916
393 1 573 571 572
394 1 2736 2734 2735
395 1 1386 1384 1385
396 1 2175 2173 2174
397 1 2712 2710 2711
398 1 1776 1774 1775
399 1 402 400 401
400 1 2397 2395 2396
401 1 2724 2722 2723
402 1 2607 2605 2606
403 1 2628 2626 2627
404 1 981 979 980
405 1 279 277 278
406 1 1104 1102 1103
407 1 1014 1012 1013
408 1 1854 1852 1853
409 1 1773 1771 1772
410 1 1896 1894 1895
411 1 198 196 197
412 1 1134 1132 1133
413 1 2580 2578 2579
414 1 741 739 740
415 1 408 406 407
416 1 2301 2299 2300
417 1 1614 1612 1613
418 1 633 631 632
419 1 789 787 788
420 1 1401 1399 1400
421 1 1524 1522 1523
422 1 1536 1534 1535
423 1 48 46 47
424 1 1377 1375 1376
425 1 468 466 467
426 1 1293 1291 1292
427 1 639 637 638
428 1 177 175 176
429 1 2559 2557 2558
430 1 2631 2629 2630
431 1 150 148 149
432 1 1569 1567 1568
433 1 2943 2941 2942
434 1 1923 1921 1922
435 1 1605 1603 1604
436 1 1128 1126 1127
437 1 2865 2863 2864
438 1 1080 1078 1079
439 1 1308 1306 1307
440 1 2118 2116 2117
441 1 2748 2746 2747
442 1 2649 2647 2648
443 1 1056 1054 1055
444 1 1800 1798 1799
445 1 1557 1555 1556
446 1 2121 2119 2120
447 1 2103 2101 2102
448 1 1029 1027 1028
449 1 624 622 623
450 1 1506 1504 1505
451 1 2319 2317 2318
452 1 1680 1678 1679
453 1 2619 2617 2618
454 1 2646 2644 2645
455 1 2172 2170 2171
456 1 876 874 875
457 1 2850 2848 2849
458 1 204 202 203
459 1 2016 2014 2015
460 1 1359 1357 1358
461 1 1497 1495 1496
462 1 2184 2182 2183
463 1 1263 1261 1262
464 1 1797 1795 1796
465 1 837 835 836
466 1 1743 1741 1742
467 1 891 889 890
468 1 2082 2080 2081
469 1 501 499 500
470 1 1011 1009 1010
471 1 1215 1213 1214
472 1 2910 2908 2909
473 1 744 742 743
474 1 1422 1420 1421
475 1 1794 1792 1793
476 1 27 25 26
477 1 2784 2782 2783
478 1 1371 1369 1370
479 1 1596 1594 1595
480 1 1425 1423 1424
481 1 2967 2965 2966
482 1 1902 1900 1901
483 1 2721 2719 2720
484 1 612 610 611
485 1 288 286 287
486 1 2199 2197 2198
487 1 261 259 260
488 1 183 181 182
489 1 2376 2374 2375
490 1 2061 2059 2060
491 1 438 436 437
492 1 2076 2074 2075
493 1 2049 2047 2048
494 1 747 745 746
495 1 1758 1756 1757
496 1 294 292 293
497 1 2652 2650 2651
498 1 2757 2755 2756
499 1 1740 1738 1739
500 1 1992 1990 1991
501 1 1869 1867 1868
502 1 690 688 689
503 1 2922 2920 2921
504 1 1626 1624 1625
505 1 1248 1246 1247
506 1 1092 1090 1091
507 1 579 577 578
508 1 1332 1330 1331
509 1 2304 2302 2303
510 1 564 562 563
511 1 1665 1663 1664
512 1 2073 2071 2072
513 1 2352 2350 2351
514 1 720 718 719
515 1 2226 2224 2225
516 1 2334 2332 2333
517 1 1824 1822 1823
518 1 2625 2623 2624
519 1 2256 2254 2255
520 1 267 265 266
521 1 123 121 122
522 1 2124 2122 2123
523 1 2028 2026 2027
524 1 591 589 590
525 1 1182 1180 1181
526 1 18 16 17
527 1 2664 2662 2663
528 1 1260 1258 1259
529 1 1737 1735 1736
530 1 369 367 368
531 1 708 706 707
532 1 1083 1081 1082
533 1 276 274 275
534 1 738 736 737
535 1 1767 1765 1766
536 1 2565 2563 2564
537 1 993 991 992
538 1 684 682 683
539 1 1446 1444 1445
540 1 393 391 392
541 1 1230 1228 1229
542 1 444 442 443
543 1 1287 1285 1286
544 1 984 982 983
545 1 1704 1702 1703
546 1 1980 1978 1979
547 1 69 67 68
548 1 1833 1831 1832
549 1 669 667 668
550 1 1710 1708 1709
551 1 2526 2524 2525
552 1 2013 2011 2012
553 1 1986 1984 1985
554 1 249 247 248
555 1 2916 2914 2915
556 1 381 379 380
557 1 927 925 926
558 1 234 232 233
559 1 1920 1918 1919
560 1 2541 2539 2540
561 1 2373 2371 2372
562 1 132 130 131
563 1 81 79 80
564 1 1551 1549 1550
565 1 273 271 272
566 1 2469 2467 2468
567 1 1434 1432 1433
568 1 2643 2641 2642
569 1 1989 1987 1988
570 1 882 880 881
571 1 441 439 440
572 1 1512 1510 1511
573 1 1023 1021 1022
574 1 1005 1003 1004
575 1 2751 2749 2750
576 1 2697 2695 2696
577 1 2829 2827 2828
578 1 2484 2482 2483
579 1 954 952 953
580 1 1734 1732 1733
581 1 1077 1075 1076
582 1 2523 2521 2522
583 1 1155 1153 1154
584 1 252 250 251
585 1 912 910 911
586 1 2133 2131 2132
587 1 1818 1816 1817
588 1 1878 1876 1877
589 1 2088 2086 2087
590 1 846 844 845
591 1 489 487 488
592 1 1008 1006 1007
593 1 900 898 899
594 1 1494 1492 1493
595 1 537 535 536
596 1 990 988 989
597 1 2097 2095 2096
598 1 1452 1450 1451
599 1 480 478 479
600 1 711 709 710
601 1 2418 2416 2417
602 1 1374 1372 1373
603 1 2274 2272 2273
604 1 1269 1267 1268
605 1 1791 1789 1790
606 1 303 301 302
607 1 1065 1063 1064
608 1 1068 1066 1067
609 1 657 655 656
610 1 1641 1639 1640
611 1 474 472 473
612 1 2925 2923 2924
613 1 1851 1849 1850
614 1 819 817 818
615 1 969 967 968
616 1 2811 2809 2810
617 1 2742 2740 2741
618 1 339 337 338
619 1 2271 2269 2270
620 1 2085 2083 2084
621 1 129 127 128
622 1 2847 2845 2846
623 1 921 919 920
624 1 1086 1084 1085
625 1 258 256 257
626 1 2814 2812 2813
627 1 1473 1471 1472
628 1 2001 1999 2000
629 1 1971 1969 1970
630 1 1353 1351 1352
631 1 1587 1585 1586
632 1 102 100 101
633 1 12 10 11
634 1 1683 1681 1682
635 1 21 19 20
636 1 1935 1933 1934
637 1 429 427 428
638 1 1017 1015 1016
639 1 2148 2146 2147
640 1 60 58 59
641 1 1653 1651 1652
642 1 1455 1453 1454
643 1 2973 2971 2972
644 1 348 346 347
645 1 2529 2527 2528
646 1 2493 2491 2492
647 1 1089 1087 1088
648 1 120 118 119
649 1 2262 2260 2261
650 1 312 310 311
651 1 1395 1393 1394
652 1 663 661 662
653 1 717 715 716
654 1 2730 2728 2729
655 1 333 331 332
656 1 2235 2233 2234
657 1 507 505 506
658 1 567 565 566
659 1 2700 2698 2699
660 1 1479 1477 1478
661 1 2100 2098 2099
662 1 828 826 827
663 1 2877 2875 2876
664 1 1932 1930 1931
665 1 2064 2062 2063
666 1 651 649 650
667 1 2094 2092 2093
668 1 2313 2311 2312
669 1 1272 1270 1271
670 1 1608 1606 1607
671 1 2415 2413 2414
672 1 1032 1030 1031
673 1 1266 1264 1265
674 1 1302 1300 1301
675 1 963 961 962
676 1 1167 1165 1166
677 1 1590 1588 1589
678 1 801 799 800
679 1 1212 1210 1211
680 1 84 82 83
681 1 1812 1810 1811
682 1 1578 1576 1577
683 1 2562 2560 2561
684 1 2988 2986 2987
685 1 2553 2551 2552
686 1 2991 2989 2990
687 1 1572 1570 1571
688 1 2571 2569 2570
689 1 1530 1528 1529
690 1 2622 2620 2621
691 1 2994 2992 2993
692 1 225 223 224
693 1 207 205 206
694 1 2964 2962 2963
695 1 1143 1141 1142
696 1 1629 1627 1628
697 1 2853 2851 2852
698 1 45 43 44
699 1 492 490 491
700 1 594 592 593
701 1 2919 2917 2918
702 1 1836 1834 1835
703 1 387 385 386
704 1 1194 1192 1193
705 1 1617 1615 1616
706 1 30 28 29
707 1 1149 1147 1148
708 1 1890 1888 1889
709 1 1656 1654 1655
710 1 1050 1048 1049
711 1 2058 2056 2057
712 1 1158 1156 1157
713 1 2337 2335 2336
714 1 2343 2341 2342
715 1 2025 2023 2024
716 1 750 748 749
717 1 2772 2770 2771
718 1 1968 1966 1967
719 1 378 376 377
720 1 1239 1237 1238
721 1 2970 2968 2969
722 1 786 784 785
723 1 609 607 608
724 1 2220 2218 2219
725 1 1602 1600 1601
726 1 1251 1249 1250
727 1 1419 1417 1418
728 1 216 214 215
729 1 2676 2674 2675
730 1 2889 2887 2888
731 1 192 190 191
732 1 822 820 821
733 1 513 511 512
734 1 2268 2266 2267
735 1 417 415 416
736 1 201 199 200
737 1 2127 2125 2126
738 1 2031 2029 2030
739 1 771 769 770
740 1 2841 2839 2840
741 1 582 580 581
742 1 66 64 65
743 1 36 34 35
744 1 1779 1777 1778
745 1 1701 1699 1700
746 1 702 700 701
747 1 114 112 113
748 1 2454 2452 2453
749 1 1179 1177 1178
750 1 705 703 704
751 1 1560 1558 1559
752 1 1440 1438 1439
753 1 465 463 464
754 1 1341 1339 1340
755 1 1368 1366 1367
756 1 2616 2614 2615
757 1 2046 2044 2045
758 1 450 448 449
759 1 1962 1960 1961
760 1 1464 1462 1463
761 1 24 22 23
762 1 195 193 194
763 1 1731 1729 1730
764 1 2379 2377 2378
765 1 2217 2215 2216
766 1 1053 1051 1052
767 1 51 49 50
768 1 498 496 497
769 1 240 238 239
770 1 714 712 713
771 1 1233 1231 1232
772 1 1356 1354 1355
773 1 1815 1813 1814
774 1 2499 2497 2498
775 1 231 229 230
776 1 555 553 554
777 1 1152 1150 1151
778 1 1863 1861 1862
779 1 543 541 542
780 1 327 325 326
781 1 777 775 776
782 1 2457 2455 2456
783 1 1647 1645 1646
784 1 1677 1675 1676
785 1 2586 2584 2585
786 1 1728 1726 1727
787 1 1584 1582 1583
788 1 111 109 110
789 1 2310 2308 2309
790 1 1323 1321 1322
791 1 1140 1138 1139
792 1 2820 2818 2819
793 1 2067 2065 2066
794 1 2934 2932 2933
795 1 1671 1669 1670
796 1 2424 2422 2423
797 1 2880 2878 2879
798 1 2205 2203 2204
799 1 477 475 476
800 1 375 373 374
801 1 1365 1363 1364
802 1 1839 1837 1838
803 1 351 349 350
804 1 2733 2731 2732
805 1 2178 2176 2177
806 1 1296 1294 1295
807 1 978 976 977
808 1 2196 2194 2195
809 1 483 481 482
810 1 732 730 731
811 1 654 652 653
812 1 174 172 173
813 1 600 598 599
814 1 219 217 218
815 1 2574 2572 2573
816 1 2403 2401 2402
817 1 699 697 698
818 1 2388 2386 2387
819 1 936 934 935
820 1 1725 1723 1724
821 1 1335 1333 1334
822 1 2832 2830 2831
823 1 315 313 314
824 1 2019 2017 2018
825 1 2688 2686 2687
826 1 2661 2659 2660
827 1 2151 2149 2150
828 1 2043 2041 2042
829 1 2520 2518 2519
830 1 213 211 212
831 1 723 721 722
832 1 2778 2776 2777
833 1 864 862 863
834 1 210 208 209
835 1 2283 2281 2282
836 1 2535 2533 2534
837 1 807 805 806
838 1 2466 2464 2465
839 1 1803 1801 1802
840 1 1950 1948 1949
841 1 156 154 155
842 1 2517 2515 2516
843 1 2034 2032 2033
844 1 2187 2185 2186
845 1 2349 2347 2348
846 1 1311 1309 1310
847 1 2985 2983 2984
848 1 1845 1843 1844
849 1 1245 1243 1244
850 1 1941 1939 1940
851 1 885 883 884
852 1 597 595 596
853 1 2610 2608 2609
854 1 366 364 365
855 1 390 388 389
856 1 1059 1057 1058
857 1 783 781 782
858 1 2598 2596 2597
859 1 1041 1039 1040
860 1 1047 1045 1046
861 1 1860 1858 1859
862 1 813 811 812
863 1 1146 1144 1145
864 1 2805 2803 2804
865 1 2202 2200 2201
866 1 1488 1486 1487
867 1 1125 1123 1124
868 1 1545 1543 1544
869 1 1623 1621 1622
870 1 495 493 494
871 1 2718 2716 2717
872 1 2949 2947 2948
873 1 2436 2434 2435
874 1 1761 1759 1760
875 1 1278 1276 1277
876 1 1044 1042 1043
877 1 1476 1474 1475
878 1 2538 2536 2537
879 1 2340 2338 2339
880 1 1197 1195 1196
881 1 549 547 548
882 1 1035 1033 1034
883 1 1224 1222 1223
884 1 2745 2743 2744
885 1 1599 1597 1598
886 1 2316 2314 2315
887 1 2160 2158 2159
888 1 933 931 932
889 1 2433 2431 2432
890 1 1176 1174 1175
891 1 2637 2635 2636
892 1 2406 2404 2405
893 1 2655 2653 2654
894 1 792 790 791
895 1 621 619 620
896 1 906 904 905
897 1 57 55 56
898 1 306 304 305
899 1 2589 2587 2588
900 1 843 841 842
901 1 2601 2599 2600
902 1 1974 1972 1973
903 1 1827 1825 1826
904 1 1320 1318 1319
905 1 99 97 98
906 1 870 868 869
907 1 903 901 902
908 1 246 244 245
909 1 909 907 908
910 1 1344 1342 1343
911 1 1806 1804 1805
912 1 774 772 773
913 1 2106 2104 2105
914 1 1911 1909 1910
915 1 159 157 158
916 1 1947 1945 1946
917 1 2673 2671 2672
918 1 2577 2575 2576
919 1 6 4 5
920 1 780 778 779
921 1 2931 2929 2930
922 1 2181 2179 2180
923 1 291 289 290
924 1 141 139 140
925 1 399 397 398
926 1 2754 2752 2753
927 1 660 658 659
928 1 2883 2881 2882
929 1 570 568 569
930 1 636 634 635
931 1 834 832 833
932 1 2265 2263 2264
933 1 585 583 584
934 1 1944 1942 1943
935 1 165 163 164
936 1 1548 1546 1547
937 1 1995 1993 1994
938 1 1326 1324 1325
939 1 1071 1069 1070
940 1 2328 2326 2327
941 1 342 340 341
942 1 2532 2530 2531
943 1 1290 1288 1289
944 1 2355 2353 2354
945 1 2040 2038 2039
946 1 228 226 227
947 1 972 970 971
948 1 2799 2797 2798
949 1 222 220 221
950 1 138 136 137
951 1 405 403 404
952 1 516 514 515
953 1 1350 1348 1349
954 1 2490 2488 2489
955 1 525 523 524
956 1 759 757 758
957 1 2157 2155 2156
958 1 2769 2767 2768
959 1 915 913 914
960 1 576 574 575
961 1 1620 1618 1619
962 1 2325 2323 2324
963 1 645 643 644
964 1 2109 2107 2108
965 1 2550 2548 2549
966 1 693 691 692
967 1 1857 1855 1856
968 1 330 328 329
969 1 1635 1633 1634
970 1 1695 1693 1694
971 1 2289 2287 2288
972 1 648 646 647
973 1 264 262 263
974 1 2166 2164 2165
975 1 2427 2425 2426
976 1 1977 1975 1976
977 1 1116 1114 1115
978 1 1788 1786 1787
979 1 2709 2707 2708
980 1 2496 2494 2495
981 1 2364 2362 2363
982 1 1206 1204 1205
983 1 1254 1252 1253
984 1 951 949 950
985 1 1959 1957 1958
986 1 1848 1846 1847
987 1 2826 2824 2825
988 1 2961 2959 2960
989 1 2475 2473 2474
990 1 2868 2866 2867
991 1 546 544 545
992 1 1074 1072 1073
993 1 336 334 335
994 1 1764 1762 1763
995 1 534 532 533
996 1 2817 2815 2816
997 1 840 838 839
998 1 1185 1183 1184
999 1 1338 1336 1337
1000 1 147 145 146
